 
data_twin5 
 
_audit_creation_method            SHELXL-97 
_chemical_name_systematic 
; 
 ? 
; 
_chemical_name_common             ? 
_chemical_melting_point           ? 
_chemical_formula_moiety          'C23 H21 N O'  
_chemical_formula_sum 
 'C23 H21 N O' 
_chemical_formula_weight          327.41 
 
loop_ 
 _atom_type_symbol 
 _atom_type_description 
 _atom_type_scat_dispersion_real 
 _atom_type_scat_dispersion_imag 
 _atom_type_scat_source 
 'C'  'C'   0.0033   0.0016 
 'International Tables Vol C Tables 4.2.6.8 and 6.1.1.4' 
 'H'  'H'   0.0000   0.0000 
 'International Tables Vol C Tables 4.2.6.8 and 6.1.1.4' 
 'N'  'N'   0.0061   0.0033 
 'International Tables Vol C Tables 4.2.6.8 and 6.1.1.4' 
 'O'  'O'   0.0106   0.0060 
 'International Tables Vol C Tables 4.2.6.8 and 6.1.1.4' 
 
_symmetry_cell_setting             triclinic
_symmetry_space_group_name_H-M    'P -1' 
_symmetry_space_group_name_Hall   '-P 1'
 
loop_ 
 _symmetry_equiv_pos_as_xyz 
 'x, y, z' 
 '-x, -y, -z' 
 
_cell_length_a                    8.1475(15) 
_cell_length_b                    9.426(2) 
_cell_length_c                    11.618(3) 
_cell_angle_alpha                 79.430(8) 
_cell_angle_beta                  82.715(12) 
_cell_angle_gamma                 79.618(6) 
_cell_volume                      858.6(3) 
_cell_formula_units_Z             2 
_cell_measurement_temperature     100(2) 
_cell_measurement_reflns_used     6354   
_cell_measurement_theta_min       2.226 
_cell_measurement_theta_max       27.1125 
 
_exptl_crystal_description        block
_exptl_crystal_colour             colorless 
_exptl_crystal_size_max           0.18 
_exptl_crystal_size_mid           0.15 
_exptl_crystal_size_min           0.06 
_exptl_crystal_density_meas       ? 
_exptl_crystal_density_diffrn     1.266 
_exptl_crystal_density_method     'not measured' 
_exptl_crystal_F_000              348 
_exptl_absorpt_coefficient_mu     0.077 
_exptl_absorpt_correction_type    multi-scan 
_exptl_absorpt_correction_T_min   0.793942  
_exptl_absorpt_correction_T_max   0.862070
_exptl_absorpt_process_details    'TWINABS 2008/4'
 
_exptl_special_details 
; 
 ? 
; 
 
_diffrn_ambient_temperature       100(2) 
_diffrn_radiation_wavelength      0.71073 
_diffrn_radiation_type            MoK\a 
_diffrn_radiation_source          'INCOATEC Mo Microsource'
_diffrn_radiation_monochromator   'mirror' 
_diffrn_measurement_device_type   'Bruker Smart Apex II Quazar' 
_diffrn_measurement_method        'omega scans' 
_diffrn_detector_area_resol_mean  ? 
_diffrn_reflns_number             89680 
_diffrn_reflns_av_R_equivalents   0.0456
_diffrn_reflns_av_sigmaI/netI     0.0376 
_diffrn_reflns_limit_h_min        -10 
_diffrn_reflns_limit_h_max        10 
_diffrn_reflns_limit_k_min        -11 
_diffrn_reflns_limit_k_max        12 
_diffrn_reflns_limit_l_min        0 
_diffrn_reflns_limit_l_max        15 
_diffrn_reflns_theta_min          1.79 
_diffrn_reflns_theta_max          27.51 
_reflns_number_total              3948 
_reflns_number_gt                 3617 
_reflns_threshold_expression      >2sigma(I) 
 
_computing_data_collection        'APEX2 v2011.2' 
_computing_cell_refinement        'SAINT V7.68A' 
_computing_data_reduction         'SAINT V7.68A' 
_computing_structure_solution     'SHELXS-97 (Sheldrick, 2008)' 
_computing_structure_refinement   'SHELXL-97 (Sheldrick, 2008)' 
_computing_molecular_graphics     'XP Version 5.1' 
_computing_publication_material   'XP Version 5.1' 
 
_refine_special_details 
; 
 Refinement of F^2^ against ALL reflections.  The weighted R-factor wR and 
 goodness of fit S are based on F^2^, conventional R-factors R are based 
 on F, with F set to zero for negative F^2^. The threshold expression of 
 F^2^ > 2sigma(F^2^) is used only for calculating R-factors(gt) etc. and is 
 not relevant to the choice of reflections for refinement.  R-factors based 
 on F^2^ are statistically about twice as large as those based on F, and R- 
 factors based on ALL data will be even larger. 
 
 The crystal was a nonmeohedral twin with 180 deg rotation of the two domains 
 with twin law: -1 0 0  -0.37 1 -0.27  0 0 -1. 
 

 Both domains were integrated with SAINT.
 The data of the stronger domain was used for the refinement as hklf5 data.
 
    38066 data (   3109 unique ) involve domain  1 only,  mean I/sigma   6.7
    37838 data (   3106 unique ) involve domain  2 only,  mean I/sigma   4.0
    14260 data (   1534 unique ) involve   2 domains,  mean I/sigma   7.5
    
 N(1) and Rint(1) refer to singles and composites that include domain 1.
 Rint = 0.0456  for all   89680  observations and
 Rint = 0.0376  for all   44606  observations with I > 3sigma(I)
 
 HKLF 5 dataset constructed from all observations involving domain 1
    5484 Corrected reflections written to file twin5.hkl
 Reflections merged according to point-group -1    
 Single reflections that also occur in composites omitted
 Minimum and maximum apparent transmission:  0.793942  0.862070
 Additional spherical absorption correction applied with mu*r =  0.1000
 
; 
 
_refine_ls_structure_factor_coef  Fsqd  
_refine_ls_matrix_type            full 
_refine_ls_weighting_scheme       calc  
_refine_ls_weighting_details 
 'calc w=1/[\s^2^(Fo^2^)+(0.0463P)^2^+0.4655P] where P=(Fo^2^+2Fc^2^)/3' 
_atom_sites_solution_primary      direct 
_atom_sites_solution_secondary    difmap 
_atom_sites_solution_hydrogens    geom 
_refine_ls_hydrogen_treatment     constr 
_refine_ls_extinction_method      none 
_refine_ls_extinction_coef        ? 
_refine_ls_number_reflns          3948 
_refine_ls_number_parameters      227 
_refine_ls_number_restraints      0 
_refine_ls_R_factor_all           0.0485 
_refine_ls_R_factor_gt            0.0447 
_refine_ls_wR_factor_ref          0.1150 
_refine_ls_wR_factor_gt           0.1128 
_refine_ls_goodness_of_fit_ref    1.065 
_refine_ls_restrained_S_all       1.065 
_refine_ls_shift/su_max           0.000 
_refine_ls_shift/su_mean          0.000 
 
loop_ 
 _atom_site_label 
 _atom_site_type_symbol 
 _atom_site_fract_x 
 _atom_site_fract_y 
 _atom_site_fract_z 
 _atom_site_U_iso_or_equiv 
 _atom_site_adp_type 
 _atom_site_occupancy 
 _atom_site_symmetry_multiplicity 
 _atom_site_calc_flag 
 _atom_site_refinement_flags 
 _atom_site_disorder_assembly 
 _atom_site_disorder_group 
O1 O 0.24875(14) 0.28217(13) 0.51920(10) 0.0241(3) Uani 1 1 d . . . 
C1 C 0.0548(2) 0.17923(17) 0.43467(15) 0.0231(3) Uani 1 1 d . . . 
H1A H 0.0804 0.1591 0.3539 0.035 Uiso 1 1 calc R . . 
H1B H -0.0663 0.2094 0.4504 0.035 Uiso 1 1 calc R . . 
H1C H 0.0916 0.0907 0.4899 0.035 Uiso 1 1 calc R . . 
N1 N 0.10564(15) 0.43407(14) 0.37749(11) 0.0165(3) Uani 1 1 d . . . 
C2 C 0.14491(19) 0.29967(16) 0.44964(13) 0.0184(3) Uani 1 1 d . . . 
C3 C 0.18389(18) 0.55724(16) 0.37191(13) 0.0161(3) Uani 1 1 d . . . 
C4 C 0.30512(18) 0.58073(16) 0.43819(13) 0.0181(3) Uani 1 1 d . . . 
H4 H 0.3471 0.5082 0.5003 0.022 Uiso 1 1 calc R . . 
C5 C 0.36167(19) 0.71446(17) 0.40950(14) 0.0202(3) Uani 1 1 d . . . 
H5 H 0.4456 0.7330 0.4520 0.024 Uiso 1 1 calc R . . 
C6 C 0.29789(19) 0.82255(17) 0.31943(14) 0.0204(3) Uani 1 1 d . . . 
H6 H 0.3391 0.9130 0.3019 0.025 Uiso 1 1 calc R . . 
C7 C 0.17524(19) 0.79934(16) 0.25543(14) 0.0192(3) Uani 1 1 d . . . 
H7 H 0.1308 0.8736 0.1953 0.023 Uiso 1 1 calc R . . 
C8 C 0.11828(18) 0.66476(16) 0.28107(13) 0.0161(3) Uani 1 1 d . . . 
C9 C -0.00496(18) 0.60564(16) 0.23102(13) 0.0165(3) Uani 1 1 d . . . 
C10 C -0.00825(18) 0.46823(17) 0.29104(13) 0.0177(3) Uani 1 1 d . . . 
H10 H -0.0779 0.4039 0.2767 0.021 Uiso 1 1 calc R . . 
C11 C -0.11331(18) 0.68152(16) 0.13773(13) 0.0165(3) Uani 1 1 d . . . 
C12 C -0.2809(2) 0.69879(17) 0.16284(14) 0.0214(3) Uani 1 1 d . . . 
H12 H -0.3241 0.6651 0.2410 0.026 Uiso 1 1 calc R . . 
C13 C -0.4037(2) 0.76812(19) 0.07474(15) 0.0251(3) Uani 1 1 d . . . 
H13A H -0.4527 0.8678 0.0898 0.030 Uiso 1 1 calc R . . 
H13B H -0.4960 0.7102 0.0842 0.030 Uiso 1 1 calc R . . 
C14 C -0.3205(2) 0.77700(19) -0.05068(15) 0.0243(3) Uani 1 1 d . . . 
H14A H -0.3969 0.8412 -0.1053 0.029 Uiso 1 1 calc R . . 
H14B H -0.2972 0.6784 -0.0731 0.029 Uiso 1 1 calc R . . 
C15 C -0.15643(19) 0.83784(18) -0.06043(14) 0.0212(3) Uani 1 1 d . . . 
H15A H -0.1043 0.8449 -0.1426 0.025 Uiso 1 1 calc R . . 
H15B H -0.1805 0.9374 -0.0400 0.025 Uiso 1 1 calc R . . 
C16 C -0.03568(19) 0.74083(16) 0.02085(13) 0.0182(3) Uani 1 1 d . . . 
C17 C 0.13010(19) 0.70640(17) -0.00880(13) 0.0197(3) Uani 1 1 d . . . 
H17 H 0.1919 0.6383 0.0473 0.024 Uiso 1 1 calc R . . 
C18 C 0.22677(19) 0.76305(17) -0.11932(13) 0.0191(3) Uani 1 1 d . . . 
C19 C 0.3514(2) 0.66648(17) -0.17283(14) 0.0222(3) Uani 1 1 d . . . 
H19 H 0.3730 0.5666 -0.1375 0.027 Uiso 1 1 calc R . . 
C20 C 0.4443(2) 0.71517(19) -0.27751(15) 0.0247(3) Uani 1 1 d . . . 
H20 H 0.5267 0.6483 -0.3142 0.030 Uiso 1 1 calc R . . 
C21 C 0.4158(2) 0.86184(19) -0.32771(14) 0.0247(3) Uani 1 1 d . . . 
H21 H 0.4786 0.8953 -0.3990 0.030 Uiso 1 1 calc R . . 
C22 C 0.2962(2) 0.95930(18) -0.27437(15) 0.0240(3) Uani 1 1 d . . . 
H22 H 0.2780 1.0598 -0.3083 0.029 Uiso 1 1 calc R . . 
C23 C 0.2028(2) 0.90989(18) -0.17117(14) 0.0219(3) Uani 1 1 d . . . 
H23 H 0.1207 0.9775 -0.1351 0.026 Uiso 1 1 calc R . . 
 
loop_ 
 _atom_site_aniso_label 
 _atom_site_aniso_U_11 
 _atom_site_aniso_U_22 
 _atom_site_aniso_U_33 
 _atom_site_aniso_U_23 
 _atom_site_aniso_U_13 
 _atom_site_aniso_U_12 
O1 0.0239(6) 0.0235(6) 0.0228(6) 0.0059(5) -0.0062(5) -0.0056(5) 
C1 0.0265(8) 0.0167(7) 0.0253(8) 0.0001(6) -0.0017(6) -0.0059(6) 
N1 0.0168(6) 0.0160(6) 0.0168(6) 0.0001(5) -0.0028(5) -0.0052(5) 
C2 0.0186(7) 0.0179(7) 0.0163(7) 0.0012(6) 0.0021(6) -0.0033(5) 
C3 0.0153(6) 0.0168(7) 0.0155(7) -0.0013(5) 0.0001(5) -0.0033(5) 
C4 0.0173(7) 0.0189(7) 0.0174(7) -0.0016(6) -0.0038(6) -0.0011(5) 
C5 0.0180(7) 0.0230(8) 0.0218(7) -0.0069(6) -0.0037(6) -0.0045(6) 
C6 0.0207(7) 0.0178(7) 0.0236(8) -0.0027(6) -0.0008(6) -0.0066(6) 
C7 0.0195(7) 0.0177(7) 0.0190(7) 0.0015(6) -0.0024(6) -0.0032(6) 
C8 0.0140(6) 0.0191(7) 0.0147(7) -0.0019(5) -0.0003(5) -0.0031(5) 
C9 0.0140(6) 0.0198(7) 0.0160(7) -0.0019(6) -0.0010(5) -0.0045(5) 
C10 0.0161(7) 0.0213(7) 0.0166(7) -0.0014(6) -0.0034(5) -0.0057(6) 
C11 0.0180(7) 0.0152(7) 0.0164(7) -0.0004(5) -0.0040(5) -0.0037(5) 
C12 0.0206(7) 0.0223(8) 0.0209(7) -0.0008(6) -0.0022(6) -0.0052(6) 
C13 0.0180(7) 0.0280(8) 0.0281(9) 0.0002(7) -0.0046(6) -0.0037(6) 
C14 0.0214(8) 0.0283(8) 0.0238(8) 0.0006(6) -0.0098(6) -0.0049(6) 
C15 0.0206(7) 0.0238(8) 0.0180(7) 0.0003(6) -0.0044(6) -0.0026(6) 
C16 0.0199(7) 0.0188(7) 0.0167(7) -0.0014(6) -0.0047(6) -0.0043(6) 
C17 0.0209(7) 0.0193(7) 0.0182(7) 0.0004(6) -0.0045(6) -0.0031(6) 
C18 0.0173(7) 0.0262(8) 0.0148(7) -0.0028(6) -0.0030(5) -0.0058(6) 
C19 0.0226(7) 0.0194(7) 0.0262(8) -0.0033(6) -0.0059(6) -0.0057(6) 
C20 0.0218(8) 0.0280(8) 0.0269(8) -0.0123(7) 0.0016(6) -0.0055(6) 
C21 0.0277(8) 0.0329(9) 0.0163(7) -0.0030(6) -0.0017(6) -0.0134(7) 
C22 0.0281(8) 0.0228(8) 0.0227(8) -0.0009(6) -0.0066(6) -0.0081(6) 
C23 0.0226(8) 0.0235(8) 0.0203(8) -0.0048(6) -0.0053(6) -0.0025(6) 
 
_geom_special_details 
; 
 All esds (except the esd in the dihedral angle between two l.s. planes) 
 are estimated using the full covariance matrix.  The cell esds are taken 
 into account individually in the estimation of esds in distances, angles 
 and torsion angles; correlations between esds in cell parameters are only 
 used when they are defined by crystal symmetry.  An approximate (isotropic) 
 treatment of cell esds is used for estimating esds involving l.s. planes. 
; 
 
loop_ 
 _geom_bond_atom_site_label_1 
 _geom_bond_atom_site_label_2 
 _geom_bond_distance 
 _geom_bond_site_symmetry_2 
 _geom_bond_publ_flag 
O1 C2 1.2126(19) . ? 
C1 C2 1.504(2) . ? 
C1 H1A 0.9800 . ? 
C1 H1B 0.9800 . ? 
C1 H1C 0.9800 . ? 
N1 C2 1.3936(19) . ? 
N1 C10 1.4083(19) . ? 
N1 C3 1.4097(19) . ? 
C3 C4 1.397(2) . ? 
C3 C8 1.408(2) . ? 
C4 C5 1.389(2) . ? 
C4 H4 0.9500 . ? 
C5 C6 1.400(2) . ? 
C5 H5 0.9500 . ? 
C6 C7 1.388(2) . ? 
C6 H6 0.9500 . ? 
C7 C8 1.397(2) . ? 
C7 H7 0.9500 . ? 
C8 C9 1.458(2) . ? 
C9 C10 1.357(2) . ? 
C9 C11 1.482(2) . ? 
C10 H10 0.9500 . ? 
C11 C12 1.347(2) . ? 
C11 C16 1.479(2) . ? 
C12 C13 1.501(2) . ? 
C12 H12 0.9500 . ? 
C13 C14 1.521(2) . ? 
C13 H13A 0.9900 . ? 
C13 H13B 0.9900 . ? 
C14 C15 1.530(2) . ? 
C14 H14A 0.9900 . ? 
C14 H14B 0.9900 . ? 
C15 C16 1.513(2) . ? 
C15 H15A 0.9900 . ? 
C15 H15B 0.9900 . ? 
C16 C17 1.347(2) . ? 
C17 C18 1.482(2) . ? 
C17 H17 0.9500 . ? 
C18 C23 1.394(2) . ? 
C18 C19 1.400(2) . ? 
C19 C20 1.396(2) . ? 
C19 H19 0.9500 . ? 
C20 C21 1.389(2) . ? 
C20 H20 0.9500 . ? 
C21 C22 1.382(2) . ? 
C21 H21 0.9500 . ? 
C22 C23 1.387(2) . ? 
C22 H22 0.9500 . ? 
C23 H23 0.9500 . ? 
 
loop_ 
 _geom_angle_atom_site_label_1 
 _geom_angle_atom_site_label_2 
 _geom_angle_atom_site_label_3 
 _geom_angle 
 _geom_angle_site_symmetry_1 
 _geom_angle_site_symmetry_3 
 _geom_angle_publ_flag 
C2 C1 H1A 109.5 . . ? 
C2 C1 H1B 109.5 . . ? 
H1A C1 H1B 109.5 . . ? 
C2 C1 H1C 109.5 . . ? 
H1A C1 H1C 109.5 . . ? 
H1B C1 H1C 109.5 . . ? 
C2 N1 C10 126.69(13) . . ? 
C2 N1 C3 125.51(13) . . ? 
C10 N1 C3 107.62(12) . . ? 
O1 C2 N1 120.75(14) . . ? 
O1 C2 C1 122.59(14) . . ? 
N1 C2 C1 116.65(13) . . ? 
C4 C3 C8 121.96(14) . . ? 
C4 C3 N1 130.71(14) . . ? 
C8 C3 N1 107.33(13) . . ? 
C5 C4 C3 117.24(14) . . ? 
C5 C4 H4 121.4 . . ? 
C3 C4 H4 121.4 . . ? 
C4 C5 C6 121.54(14) . . ? 
C4 C5 H5 119.2 . . ? 
C6 C5 H5 119.2 . . ? 
C7 C6 C5 120.85(14) . . ? 
C7 C6 H6 119.6 . . ? 
C5 C6 H6 119.6 . . ? 
C6 C7 C8 118.78(14) . . ? 
C6 C7 H7 120.6 . . ? 
C8 C7 H7 120.6 . . ? 
C7 C8 C3 119.61(14) . . ? 
C7 C8 C9 132.54(14) . . ? 
C3 C8 C9 107.86(13) . . ? 
C10 C9 C8 106.46(13) . . ? 
C10 C9 C11 125.98(13) . . ? 
C8 C9 C11 127.49(13) . . ? 
C9 C10 N1 110.73(13) . . ? 
C9 C10 H10 124.6 . . ? 
N1 C10 H10 124.6 . . ? 
C12 C11 C16 121.48(14) . . ? 
C12 C11 C9 118.92(13) . . ? 
C16 C11 C9 119.57(13) . . ? 
C11 C12 C13 123.93(14) . . ? 
C11 C12 H12 118.0 . . ? 
C13 C12 H12 118.0 . . ? 
C12 C13 C14 111.55(13) . . ? 
C12 C13 H13A 109.3 . . ? 
C14 C13 H13A 109.3 . . ? 
C12 C13 H13B 109.3 . . ? 
C14 C13 H13B 109.3 . . ? 
H13A C13 H13B 108.0 . . ? 
C13 C14 C15 110.04(13) . . ? 
C13 C14 H14A 109.7 . . ? 
C15 C14 H14A 109.7 . . ? 
C13 C14 H14B 109.7 . . ? 
C15 C14 H14B 109.7 . . ? 
H14A C14 H14B 108.2 . . ? 
C16 C15 C14 110.98(13) . . ? 
C16 C15 H15A 109.4 . . ? 
C14 C15 H15A 109.4 . . ? 
C16 C15 H15B 109.4 . . ? 
C14 C15 H15B 109.4 . . ? 
H15A C15 H15B 108.0 . . ? 
C17 C16 C11 120.97(14) . . ? 
C17 C16 C15 124.03(14) . . ? 
C11 C16 C15 114.99(13) . . ? 
C16 C17 C18 127.13(14) . . ? 
C16 C17 H17 116.4 . . ? 
C18 C17 H17 116.4 . . ? 
C23 C18 C19 118.06(14) . . ? 
C23 C18 C17 122.91(14) . . ? 
C19 C18 C17 119.00(14) . . ? 
C20 C19 C18 120.80(15) . . ? 
C20 C19 H19 119.6 . . ? 
C18 C19 H19 119.6 . . ? 
C21 C20 C19 119.65(15) . . ? 
C21 C20 H20 120.2 . . ? 
C19 C20 H20 120.2 . . ? 
C22 C21 C20 120.25(15) . . ? 
C22 C21 H21 119.9 . . ? 
C20 C21 H21 119.9 . . ? 
C21 C22 C23 119.82(15) . . ? 
C21 C22 H22 120.1 . . ? 
C23 C22 H22 120.1 . . ? 
C22 C23 C18 121.38(15) . . ? 
C22 C23 H23 119.3 . . ? 
C18 C23 H23 119.3 . . ? 
 
loop_ 
 _geom_torsion_atom_site_label_1 
 _geom_torsion_atom_site_label_2 
 _geom_torsion_atom_site_label_3 
 _geom_torsion_atom_site_label_4 
 _geom_torsion 
 _geom_torsion_site_symmetry_1 
 _geom_torsion_site_symmetry_2 
 _geom_torsion_site_symmetry_3 
 _geom_torsion_site_symmetry_4 
 _geom_torsion_publ_flag 
C10 N1 C2 O1 178.10(14) . . . . ? 
C3 N1 C2 O1 3.6(2) . . . . ? 
C10 N1 C2 C1 -0.8(2) . . . . ? 
C3 N1 C2 C1 -175.34(13) . . . . ? 
C2 N1 C3 C4 -4.9(2) . . . . ? 
C10 N1 C3 C4 179.68(15) . . . . ? 
C2 N1 C3 C8 174.72(13) . . . . ? 
C10 N1 C3 C8 -0.68(16) . . . . ? 
C8 C3 C4 C5 -1.2(2) . . . . ? 
N1 C3 C4 C5 178.39(14) . . . . ? 
C3 C4 C5 C6 1.2(2) . . . . ? 
C4 C5 C6 C7 0.0(2) . . . . ? 
C5 C6 C7 C8 -1.1(2) . . . . ? 
C6 C7 C8 C3 1.1(2) . . . . ? 
C6 C7 C8 C9 -179.28(15) . . . . ? 
C4 C3 C8 C7 0.1(2) . . . . ? 
N1 C3 C8 C7 -179.57(13) . . . . ? 
C4 C3 C8 C9 -179.62(13) . . . . ? 
N1 C3 C8 C9 0.70(16) . . . . ? 
C7 C8 C9 C10 179.87(16) . . . . ? 
C3 C8 C9 C10 -0.45(16) . . . . ? 
C7 C8 C9 C11 -3.3(3) . . . . ? 
C3 C8 C9 C11 176.42(14) . . . . ? 
C8 C9 C10 N1 0.03(17) . . . . ? 
C11 C9 C10 N1 -176.90(13) . . . . ? 
C2 N1 C10 C9 -174.92(14) . . . . ? 
C3 N1 C10 C9 0.41(17) . . . . ? 
C10 C9 C11 C12 57.5(2) . . . . ? 
C8 C9 C11 C12 -118.82(17) . . . . ? 
C10 C9 C11 C16 -124.59(16) . . . . ? 
C8 C9 C11 C16 59.1(2) . . . . ? 
C16 C11 C12 C13 4.7(2) . . . . ? 
C9 C11 C12 C13 -177.41(14) . . . . ? 
C11 C12 C13 C14 16.0(2) . . . . ? 
C12 C13 C14 C15 -47.30(19) . . . . ? 
C13 C14 C15 C16 60.11(18) . . . . ? 
C12 C11 C16 C17 -170.92(15) . . . . ? 
C9 C11 C16 C17 11.2(2) . . . . ? 
C12 C11 C16 C15 7.9(2) . . . . ? 
C9 C11 C16 C15 -170.03(13) . . . . ? 
C14 C15 C16 C17 138.77(16) . . . . ? 
C14 C15 C16 C11 -39.95(18) . . . . ? 
C11 C16 C17 C18 -176.48(14) . . . . ? 
C15 C16 C17 C18 4.9(3) . . . . ? 
C16 C17 C18 C23 43.0(2) . . . . ? 
C16 C17 C18 C19 -138.98(17) . . . . ? 
C23 C18 C19 C20 -2.4(2) . . . . ? 
C17 C18 C19 C20 179.46(14) . . . . ? 
C18 C19 C20 C21 1.6(2) . . . . ? 
C19 C20 C21 C22 0.1(2) . . . . ? 
C20 C21 C22 C23 -0.9(2) . . . . ? 
C21 C22 C23 C18 0.1(2) . . . . ? 
C19 C18 C23 C22 1.6(2) . . . . ? 
C17 C18 C23 C22 179.64(14) . . . . ? 
 
_diffrn_measured_fraction_theta_max    0.997 
_diffrn_reflns_theta_full              27.51 
_diffrn_measured_fraction_theta_full   0.997 
_refine_diff_density_max    0.373 
_refine_diff_density_min   -0.272 
_refine_diff_density_rms    0.047 
