 
data_p21c-final
 
_audit_creation_method            SHELXL-97 
_chemical_name_systematic 
; 
 ? 
; 
_chemical_name_common             ? 
_chemical_melting_point           ? 
_chemical_formula_moiety          '2(C35 H32 O10), 3(C7 H8)' 
_chemical_formula_sum 
 'C91 H88 O20' 
_chemical_formula_weight          1501.61 
 
loop_ 
 _atom_type_symbol 
 _atom_type_description 
 _atom_type_scat_dispersion_real 
 _atom_type_scat_dispersion_imag 
 _atom_type_scat_source 
 'C'  'C'   0.0033   0.0016 
 'International Tables Vol C Tables 4.2.6.8 and 6.1.1.4' 
 'H'  'H'   0.0000   0.0000 
 'International Tables Vol C Tables 4.2.6.8 and 6.1.1.4' 
 'O'  'O'   0.0106   0.0060 
 'International Tables Vol C Tables 4.2.6.8 and 6.1.1.4' 
 
_symmetry_cell_setting            monoclinic 
_symmetry_space_group_name_H-M    'P 21/c' 
_symmetry_space_group_name_Hall   '-P 2ybc'
 
loop_ 
 _symmetry_equiv_pos_as_xyz 
 'x, y, z' 
 '-x, y+1/2, -z+1/2' 
 '-x, -y, -z' 
 'x, -y-1/2, z-1/2' 
 
_cell_length_a                    16.6171(14) 
_cell_length_b                    16.4743(12) 
_cell_length_c                    28.964(3) 
_cell_angle_alpha                 90.00 
_cell_angle_beta                  103.218(4) 
_cell_angle_gamma                 90.00 
_cell_volume                      7719.0(12) 
_cell_formula_units_Z             4 
_cell_measurement_temperature     296(2) 
_cell_measurement_reflns_used     9073    
_cell_measurement_theta_min       4.916   
_cell_measurement_theta_max       54.159 
 
_exptl_crystal_description        plate 
_exptl_crystal_colour             colourless
_exptl_crystal_size_max           0.22 
_exptl_crystal_size_mid           0.13 
_exptl_crystal_size_min           0.07 
_exptl_crystal_density_meas       ? 
_exptl_crystal_density_diffrn     1.292 
_exptl_crystal_density_method     'not measured' 
_exptl_crystal_F_000              3176 
_exptl_absorpt_coefficient_mu     0.091 
_exptl_absorpt_correction_type    'multi-scan' 
_exptl_absorpt_correction_T_min   0.9317
_exptl_absorpt_correction_T_max   1.0000 
_exptl_absorpt_process_details    'SADABS-2008/1' 
 
_exptl_special_details 
; 
 ? 
; 
 
_diffrn_ambient_temperature       100(2) 
_diffrn_radiation_wavelength      0.71073 
_diffrn_radiation_type            MoK\a 
_diffrn_radiation_source          'Bruker TXS-Mo rotating anode' 
_diffrn_radiation_monochromator   'INCOATEC mirror optics' 
_diffrn_measurement_device_type   'Bruker Smart Apex II with D8-Goniometer'
_diffrn_measurement_method        'omega scans'
_diffrn_detector_area_resol_mean  ? 
_diffrn_reflns_number             342741 
_diffrn_reflns_av_R_equivalents   0.0475 
_diffrn_reflns_av_sigmaI/netI     0.0168 
_diffrn_reflns_limit_h_min        -21 
_diffrn_reflns_limit_h_max        21 
_diffrn_reflns_limit_k_min        -20 
_diffrn_reflns_limit_k_max        20 
_diffrn_reflns_limit_l_min        -36 
_diffrn_reflns_limit_l_max        36 
_diffrn_reflns_theta_min          1.26 
_diffrn_reflns_theta_max          26.73 
_reflns_number_total              16388 
_reflns_number_gt                 12749 
_reflns_threshold_expression      >2sigma(I) 
 
_computing_data_collection        'APEX2 v2011.2'
_computing_cell_refinement        'SAINT V7.68A'
_computing_data_reduction         'SAINT V7.68A'
_computing_structure_solution     'SHELXS-97 (Sheldrick, 2008)' 
_computing_structure_refinement   'SHELXL-97 (Sheldrick, 2008)' 
_computing_molecular_graphics     'XP Version 5.1'
_computing_publication_material   'XP Version 5.1'
 
_refine_special_details 
; 
 Refinement of F^2^ against ALL reflections.  The weighted R-factor wR and 
 goodness of fit S are based on F^2^, conventional R-factors R are based 
 on F, with F set to zero for negative F^2^. The threshold expression of 
 F^2^ > 2sigma(F^2^) is used only for calculating R-factors(gt) etc. and is 
 not relevant to the choice of reflections for refinement.  R-factors based 
 on F^2^ are statistically about twice as large as those based on F, and R- 
 factors based on ALL data will be even larger. 
; 
 
_refine_ls_structure_factor_coef  Fsqd  
_refine_ls_matrix_type            full 
_refine_ls_weighting_scheme       calc  
_refine_ls_weighting_details 
 'calc w=1/[\s^2^(Fo^2^)+(0.0544P)^2^+4.1063P] where P=(Fo^2^+2Fc^2^)/3' 
_atom_sites_solution_primary      direct 
_atom_sites_solution_secondary    difmap 
_atom_sites_solution_hydrogens    geom 
_refine_ls_hydrogen_treatment     constr 
_refine_ls_extinction_method      none 
_refine_ls_extinction_coef        ? 
_refine_ls_number_reflns          16388 
_refine_ls_number_parameters      1150 
_refine_ls_number_restraints      291 
_refine_ls_R_factor_all           0.0576 
_refine_ls_R_factor_gt            0.0420 
_refine_ls_wR_factor_ref          0.1204 
_refine_ls_wR_factor_gt           0.1097 
_refine_ls_goodness_of_fit_ref    1.019 
_refine_ls_restrained_S_all       1.013 
_refine_ls_shift/su_max           0.002 
_refine_ls_shift/su_mean          0.000 
 
loop_ 
 _atom_site_label 
 _atom_site_type_symbol 
 _atom_site_fract_x 
 _atom_site_fract_y 
 _atom_site_fract_z 
 _atom_site_U_iso_or_equiv 
 _atom_site_adp_type 
 _atom_site_occupancy 
 _atom_site_symmetry_multiplicity 
 _atom_site_calc_flag 
 _atom_site_refinement_flags 
 _atom_site_disorder_assembly 
 _atom_site_disorder_group 
O1 O 0.75168(6) 0.70571(7) 0.31092(4) 0.0262(2) Uani 1 1 d . . . 
O2 O 0.60263(6) 0.52649(6) 0.17529(3) 0.0228(2) Uani 1 1 d . . . 
O3 O 0.44819(6) 0.54868(6) 0.16866(3) 0.0208(2) Uani 1 1 d . . . 
O4 O 0.58285(6) 0.93720(6) 0.43454(3) 0.0245(2) Uani 1 1 d . . . 
O5 O 0.73693(6) 0.90078(7) 0.44583(4) 0.0288(2) Uani 1 1 d . . . 
O6 O 0.54631(6) 0.96928(6) 0.18146(4) 0.0235(2) Uani 1 1 d . . . 
O7 O 0.39409(6) 1.00818(6) 0.15677(4) 0.0231(2) Uani 1 1 d . . . 
O8 O 0.26749(6) 0.63704(6) 0.39602(4) 0.0238(2) Uani 1 1 d . . . 
O9 O 0.41469(6) 0.57689(6) 0.41125(3) 0.0236(2) Uani 1 1 d . . . 
O10 O 0.24916(6) 0.84147(6) 0.26283(3) 0.0215(2) Uani 1 1 d . . . 
O11 O -0.25412(6) 0.76807(7) 0.18959(4) 0.0267(2) Uani 1 1 d . . . 
O12 O 0.05017(6) 0.93367(6) 0.32728(3) 0.0211(2) Uani 1 1 d . . . 
O13 O -0.10395(6) 0.95039(6) 0.32416(3) 0.0224(2) Uani 1 1 d . . . 
O14 O -0.23829(7) 0.56772(7) 0.05696(4) 0.0325(3) Uani 1 1 d . . . 
O15 O -0.08313(7) 0.53822(7) 0.06567(4) 0.0280(2) Uani 1 1 d . . . 
O16 O 0.07672(6) 0.90533(6) 0.08721(4) 0.0263(2) Uani 1 1 d . . . 
O17 O 0.22291(7) 0.84393(7) 0.09862(4) 0.0306(3) Uani 1 1 d . . . 
O18 O 0.10855(6) 0.47097(6) 0.34129(3) 0.0219(2) Uani 1 1 d . . . 
O19 O -0.04322(6) 0.51246(6) 0.31987(4) 0.0237(2) Uani 1 1 d . . . 
O20 O 0.24793(6) 0.63599(6) 0.23130(3) 0.0206(2) Uani 1 1 d . . . 
C1 C 0.56585(8) 0.79463(8) 0.33418(5) 0.0168(3) Uani 1 1 d . . . 
C2 C 0.54235(8) 0.85002(8) 0.36556(5) 0.0183(3) Uani 1 1 d . . . 
H2 H 0.4870 0.8642 0.3615 0.022 Uiso 1 1 calc R . . 
C3 C 0.60030(9) 0.88357(8) 0.40230(5) 0.0198(3) Uani 1 1 d . . . 
C4 C 0.68514(9) 0.86297(9) 0.40857(5) 0.0216(3) Uani 1 1 d . . . 
C5 C 0.70848(8) 0.80916(9) 0.37783(5) 0.0206(3) Uani 1 1 d . . . 
H5 H 0.7639 0.7953 0.3818 0.025 Uiso 1 1 calc R . . 
C6 C 0.64881(8) 0.77471(8) 0.34008(5) 0.0180(3) Uani 1 1 d . . . 
C7 C 0.67776(8) 0.71924(8) 0.30732(5) 0.0194(3) Uani 1 1 d . . . 
C8 C 0.61350(8) 0.67888(8) 0.27049(5) 0.0177(3) Uani 1 1 d . . . 
C9 C 0.64025(8) 0.62322(8) 0.24017(5) 0.0193(3) Uani 1 1 d . . . 
H9 H 0.6965 0.6149 0.2429 0.023 Uiso 1 1 calc R . . 
C10 C 0.58382(8) 0.58138(8) 0.20669(5) 0.0185(3) Uani 1 1 d . . . 
C11 C 0.49811(8) 0.59399(8) 0.20278(5) 0.0170(3) Uani 1 1 d . . . 
C12 C 0.47173(8) 0.64958(8) 0.23205(5) 0.0168(3) Uani 1 1 d . . . 
H12 H 0.4155 0.6581 0.2292 0.020 Uiso 1 1 calc R . . 
C13 C 0.52961(8) 0.69312(8) 0.26608(5) 0.0161(3) Uani 1 1 d . . . 
C14 C 0.49750(8) 0.75933(8) 0.29438(4) 0.0152(3) Uani 1 1 d . . . 
C15 C 0.46524(8) 0.82831(8) 0.25920(4) 0.0155(3) Uani 1 1 d . . . 
C16 C 0.52188(8) 0.86755(8) 0.23748(5) 0.0174(3) Uani 1 1 d . . . 
H16 H 0.5773 0.8527 0.2455 0.021 Uiso 1 1 calc R . . 
C17 C 0.49644(8) 0.92787(8) 0.20438(5) 0.0179(3) Uani 1 1 d . . . 
C18 C 0.41174(8) 0.94995(8) 0.19101(5) 0.0183(3) Uani 1 1 d . . . 
C19 C 0.35630(8) 0.91245(8) 0.21269(5) 0.0186(3) Uani 1 1 d . . . 
H19 H 0.3008 0.9270 0.2044 0.022 Uiso 1 1 calc R . . 
C20 C 0.38287(8) 0.85197(8) 0.24740(5) 0.0166(3) Uani 1 1 d . . . 
C21 C 0.32137(8) 0.81782(8) 0.27182(5) 0.0172(3) Uani 1 1 d . . . 
C22 C 0.35074(8) 0.75555(8) 0.30854(5) 0.0169(3) Uani 1 1 d . . . 
C23 C 0.29399(8) 0.72638(8) 0.33425(5) 0.0188(3) Uani 1 1 d . . . 
H23 H 0.2405 0.7470 0.3279 0.023 Uiso 1 1 calc R . . 
C24 C 0.31695(8) 0.66796(8) 0.36840(5) 0.0187(3) Uani 1 1 d . . . 
C25 C 0.39808(9) 0.63505(8) 0.37697(5) 0.0188(3) Uani 1 1 d . . . 
C26 C 0.45339(8) 0.66339(8) 0.35157(5) 0.0181(3) Uani 1 1 d . . . 
H26 H 0.5062 0.6413 0.3571 0.022 Uiso 1 1 calc R . . 
C27 C 0.43076(8) 0.72503(8) 0.31764(5) 0.0161(3) Uani 1 1 d . . . 
C28 C 0.49741(9) 0.95378(10) 0.43168(5) 0.0261(3) Uani 1 1 d . . . 
H28A H 0.4924 0.9913 0.4562 0.039 Uiso 1 1 calc R . . 
H28B H 0.4694 0.9042 0.4356 0.039 Uiso 1 1 calc R . . 
H28C H 0.4731 0.9769 0.4013 0.039 Uiso 1 1 calc R . . 
C29 C 0.82291(9) 0.88116(11) 0.45398(6) 0.0319(4) Uani 1 1 d . . . 
H29A H 0.8530 0.9113 0.4808 0.048 Uiso 1 1 calc R . . 
H29B H 0.8430 0.8949 0.4264 0.048 Uiso 1 1 calc R . . 
H29C H 0.8304 0.8241 0.4602 0.048 Uiso 1 1 calc R . . 
C30 C 0.68798(8) 0.50835(9) 0.18027(5) 0.0229(3) Uani 1 1 d . . . 
H30A H 0.6940 0.4680 0.1574 0.034 Uiso 1 1 calc R . . 
H30B H 0.7106 0.4881 0.2116 0.034 Uiso 1 1 calc R . . 
H30C H 0.7170 0.5567 0.1752 0.034 Uiso 1 1 calc R . . 
C31 C 0.36170(9) 0.56279(11) 0.16074(6) 0.0323(4) Uani 1 1 d . . . 
H31A H 0.3329 0.5267 0.1365 0.048 Uiso 1 1 calc R . . 
H31B H 0.3499 0.6180 0.1508 0.048 Uiso 1 1 calc R . . 
H31C H 0.3439 0.5532 0.1896 0.048 Uiso 1 1 calc R . . 
C32 C 0.63309(9) 0.95593(11) 0.19643(6) 0.0327(4) Uani 1 1 d . . . 
H32A H 0.6614 0.9895 0.1782 0.049 Uiso 1 1 calc R . . 
H32B H 0.6450 0.8999 0.1918 0.049 Uiso 1 1 calc R . . 
H32C H 0.6512 0.9694 0.2294 0.049 Uiso 1 1 calc R . . 
C33 C 0.30914(9) 1.03047(9) 0.14039(5) 0.0251(3) Uani 1 1 d . . . 
H33A H 0.3043 1.0711 0.1162 0.038 Uiso 1 1 calc R . . 
H33B H 0.2886 1.0517 0.1664 0.038 Uiso 1 1 calc R . . 
H33C H 0.2775 0.9836 0.1276 0.038 Uiso 1 1 calc R . . 
C34 C 0.19080(9) 0.67793(10) 0.39436(6) 0.0274(3) Uani 1 1 d . . . 
H34A H 0.1632 0.6530 0.4164 0.041 Uiso 1 1 calc R . . 
H34B H 0.1564 0.6742 0.3629 0.041 Uiso 1 1 calc R . . 
H34C H 0.2014 0.7340 0.4026 0.041 Uiso 1 1 calc R . . 
C35 C 0.49934(9) 0.55277(10) 0.42725(5) 0.0265(3) Uani 1 1 d . . . 
H35A H 0.5043 0.5155 0.4532 0.040 Uiso 1 1 calc R . . 
H35B H 0.5328 0.5998 0.4375 0.040 Uiso 1 1 calc R . . 
H35C H 0.5176 0.5269 0.4018 0.040 Uiso 1 1 calc R . . 
C36 C -0.03199(8) 0.78549(8) 0.23223(5) 0.0160(3) Uani 1 1 d . . . 
C37 C 0.02590(8) 0.83106(8) 0.26497(5) 0.0174(3) Uani 1 1 d . . . 
H37 H 0.0821 0.8240 0.2669 0.021 Uiso 1 1 calc R . . 
C38 C -0.00025(8) 0.88641(8) 0.29438(5) 0.0171(3) Uani 1 1 d . . . 
C39 C -0.08587(8) 0.89654(8) 0.29215(5) 0.0183(3) Uani 1 1 d . . . 
C40 C -0.14242(8) 0.85294(8) 0.25968(5) 0.0192(3) Uani 1 1 d . . . 
H40 H -0.1986 0.8598 0.2579 0.023 Uiso 1 1 calc R . . 
C41 C -0.11602(8) 0.79772(8) 0.22897(5) 0.0172(3) Uani 1 1 d . . . 
C42 C -0.17998(8) 0.75566(8) 0.19298(5) 0.0194(3) Uani 1 1 d . . . 
C43 C -0.15101(8) 0.69979(8) 0.16014(5) 0.0189(3) Uani 1 1 d . . . 
C44 C -0.21055(9) 0.66257(9) 0.12347(5) 0.0220(3) Uani 1 1 d . . . 
H44 H -0.2663 0.6745 0.1201 0.026 Uiso 1 1 calc R . . 
C45 C -0.18660(9) 0.60878(9) 0.09272(5) 0.0239(3) Uani 1 1 d . . . 
C46 C -0.10140(9) 0.59156(9) 0.09784(5) 0.0224(3) Uani 1 1 d . . . 
C47 C -0.04363(9) 0.62787(8) 0.13364(5) 0.0203(3) Uani 1 1 d . . . 
H47 H 0.0121 0.6160 0.1370 0.024 Uiso 1 1 calc R . . 
C48 C -0.06767(8) 0.68235(8) 0.16505(5) 0.0175(3) Uani 1 1 d . . . 
C49 C 0.00050(8) 0.71934(8) 0.20415(5) 0.0156(3) Uani 1 1 d . . . 
C50 C 0.06568(8) 0.75420(8) 0.18003(5) 0.0169(3) Uani 1 1 d . . . 
C51 C 0.04144(9) 0.81680(8) 0.14693(5) 0.0191(3) Uani 1 1 d . . . 
H51 H -0.0112 0.8390 0.1427 0.023 Uiso 1 1 calc R . . 
C52 C 0.09495(9) 0.84579(8) 0.12053(5) 0.0212(3) Uani 1 1 d . . . 
C53 C 0.17547(9) 0.81222(9) 0.12716(5) 0.0226(3) Uani 1 1 d . . . 
C54 C 0.20007(9) 0.75273(9) 0.16058(5) 0.0208(3) Uani 1 1 d . . . 
H54 H 0.2533 0.7317 0.1656 0.025 Uiso 1 1 calc R . . 
C55 C 0.14537(8) 0.72315(8) 0.18747(5) 0.0175(3) Uani 1 1 d . . . 
C56 C 0.17587(8) 0.66023(8) 0.22360(5) 0.0173(3) Uani 1 1 d . . . 
C57 C 0.11635(8) 0.62644(8) 0.24952(5) 0.0162(3) Uani 1 1 d . . . 
C58 C 0.14387(8) 0.56574(8) 0.28396(5) 0.0173(3) Uani 1 1 d . . . 
H58 H 0.1992 0.5503 0.2911 0.021 Uiso 1 1 calc R . . 
C59 C 0.08979(8) 0.52924(8) 0.30709(5) 0.0174(3) Uani 1 1 d . . . 
C60 C 0.00528(8) 0.55282(8) 0.29570(5) 0.0177(3) Uani 1 1 d . . . 
C61 C -0.02109(8) 0.61320(8) 0.26285(5) 0.0177(3) Uani 1 1 d . . . 
H61 H -0.0763 0.6291 0.2560 0.021 Uiso 1 1 calc R . . 
C62 C 0.03404(8) 0.65122(8) 0.23944(4) 0.0155(3) Uani 1 1 d . . . 
C63 C 0.13671(9) 0.92255(11) 0.33296(6) 0.0344(4) Uani 1 1 d . . . 
H63A H 0.1659 0.9596 0.3565 0.052 Uiso 1 1 calc R . . 
H63B H 0.1515 0.9327 0.3033 0.052 Uiso 1 1 calc R . . 
H63C H 0.1512 0.8678 0.3429 0.052 Uiso 1 1 calc R . . 
C64 C -0.18940(9) 0.96436(9) 0.32206(5) 0.0247(3) Uani 1 1 d . . . 
H64A H -0.1948 1.0024 0.3463 0.037 Uiso 1 1 calc R . . 
H64B H -0.2155 0.9141 0.3270 0.037 Uiso 1 1 calc R . . 
H64C H -0.2154 0.9860 0.2915 0.037 Uiso 1 1 calc R . . 
C65 C -0.32488(10) 0.58098(11) 0.05078(6) 0.0350(4) Uani 1 1 d . . . 
H65A H -0.3544 0.5484 0.0249 0.053 Uiso 1 1 calc R . . 
H65B H -0.3371 0.6373 0.0440 0.053 Uiso 1 1 calc R . . 
H65C H -0.3415 0.5662 0.0793 0.053 Uiso 1 1 calc R . . 
C66 C 0.00254(10) 0.52357(10) 0.06815(5) 0.0303(3) Uani 1 1 d . . . 
H66A H 0.0080 0.4859 0.0438 0.045 Uiso 1 1 calc R . . 
H66B H 0.0279 0.5013 0.0986 0.045 Uiso 1 1 calc R . . 
H66C H 0.0292 0.5737 0.0637 0.045 Uiso 1 1 calc R . . 
C67 C -0.00768(9) 0.93127(9) 0.07367(5) 0.0259(3) Uani 1 1 d . . . 
H67A H -0.0136 0.9707 0.0487 0.039 Uiso 1 1 calc R . . 
H67B H -0.0235 0.9551 0.1005 0.039 Uiso 1 1 calc R . . 
H67C H -0.0425 0.8854 0.0627 0.039 Uiso 1 1 calc R . . 
C68 C 0.30024(10) 0.80477(11) 0.09946(6) 0.0326(4) Uani 1 1 d . . . 
H68A H 0.3267 0.8309 0.0773 0.049 Uiso 1 1 calc R . . 
H68B H 0.2907 0.7487 0.0909 0.049 Uiso 1 1 calc R . . 
H68C H 0.3352 0.8085 0.1308 0.049 Uiso 1 1 calc R . . 
C69 C 0.19352(8) 0.44836(9) 0.35701(5) 0.0221(3) Uani 1 1 d . . . 
H69A H 0.1990 0.4084 0.3817 0.033 Uiso 1 1 calc R . . 
H69B H 0.2257 0.4953 0.3690 0.033 Uiso 1 1 calc R . . 
H69C H 0.2129 0.4261 0.3309 0.033 Uiso 1 1 calc R . . 
C70 C -0.12978(9) 0.52880(11) 0.30765(6) 0.0329(4) Uani 1 1 d . . . 
H70A H -0.1569 0.4968 0.3273 0.049 Uiso 1 1 calc R . . 
H70B H -0.1516 0.5153 0.2749 0.049 Uiso 1 1 calc R . . 
H70C H -0.1390 0.5854 0.3125 0.049 Uiso 1 1 calc R . . 
C71 C 0.07672(17) 0.79215(17) 0.46512(10) 0.0500(8) Uani 0.676(4) 1 d PDU A 1 
C72 C 0.0319(9) 0.8083(6) 0.4191(3) 0.0556(17) Uani 0.676(4) 1 d PDU A 1 
H72 H 0.0415 0.8566 0.4046 0.067 Uiso 0.676(4) 1 calc PR A 1 
C73 C -0.0261(3) 0.7549(2) 0.39455(13) 0.0619(10) Uani 0.676(4) 1 d PDU A 1 
H73 H -0.0539 0.7665 0.3636 0.074 Uiso 0.676(4) 1 calc PR A 1 
C74 C -0.0427(2) 0.6841(2) 0.41589(12) 0.0675(11) Uani 0.676(4) 1 d PDU A 1 
H74 H -0.0823 0.6480 0.3997 0.081 Uiso 0.676(4) 1 calc PR A 1 
C75 C -0.0001(3) 0.6675(2) 0.46151(12) 0.0653(12) Uani 0.676(4) 1 d PDU A 1 
H75 H -0.0111 0.6198 0.4761 0.078 Uiso 0.676(4) 1 calc PR A 1 
C76 C 0.0588(3) 0.7204(2) 0.48587(13) 0.0551(11) Uani 0.676(4) 1 d PDU A 1 
H76 H 0.0870 0.7079 0.5166 0.066 Uiso 0.676(4) 1 calc PR A 1 
C91 C 0.1424(2) 0.8483(2) 0.49101(16) 0.0711(11) Uani 0.676(4) 1 d PDU A 1 
H91A H 0.1291 0.8653 0.5201 0.107 Uiso 0.676(4) 1 calc PR A 1 
H91B H 0.1454 0.8950 0.4717 0.107 Uiso 0.676(4) 1 calc PR A 1 
H91C H 0.1946 0.8208 0.4979 0.107 Uiso 0.676(4) 1 calc PR A 1 
C93 C 0.0077(3) 0.7417(3) 0.42510(16) 0.0426(15) Uani 0.324(4) 1 d PDU A 2 
C94 C 0.0475(18) 0.8160(11) 0.4231(5) 0.047(2) Uani 0.324(4) 1 d PDU A 2 
H94 H 0.0350 0.8461 0.3952 0.056 Uiso 0.324(4) 1 calc PR A 2 
C95 C 0.1048(4) 0.8454(3) 0.4616(2) 0.0547(17) Uani 0.324(4) 1 d PDU A 2 
H95 H 0.1272 0.8969 0.4603 0.066 Uiso 0.324(4) 1 calc PR A 2 
C96 C 0.1292(4) 0.7990(4) 0.50187(19) 0.0478(16) Uani 0.324(4) 1 d PDU A 2 
H96 H 0.1698 0.8177 0.5273 0.057 Uiso 0.324(4) 1 calc PR A 2 
C97 C 0.0925(5) 0.7246(4) 0.5041(2) 0.0456(18) Uani 0.324(4) 1 d PDU A 2 
H97 H 0.1082 0.6930 0.5313 0.055 Uiso 0.324(4) 1 calc PR A 2 
C98 C 0.0328(5) 0.6966(4) 0.4663(2) 0.0418(18) Uani 0.324(4) 1 d PDU A 2 
H98 H 0.0087 0.6462 0.4685 0.050 Uiso 0.324(4) 1 calc PR A 2 
C99 C -0.0538(5) 0.7098(6) 0.3831(3) 0.079(3) Uani 0.324(4) 1 d PDU A 2 
H99A H -0.0753 0.7538 0.3622 0.119 Uiso 0.324(4) 1 calc PR A 2 
H99B H -0.0982 0.6838 0.3936 0.119 Uiso 0.324(4) 1 calc PR A 2 
H99C H -0.0274 0.6712 0.3666 0.119 Uiso 0.324(4) 1 calc PR A 2 
C77 C 0.27536(15) 0.37214(13) 0.49853(8) 0.0339(5) Uani 0.866(4) 1 d PDU B 3 
C78 C 0.31141(14) 0.43876(15) 0.48119(8) 0.0364(5) Uani 0.866(4) 1 d PDU B 3 
H78 H 0.3539 0.4305 0.4656 0.044 Uiso 0.866(4) 1 calc PR B 3 
C79 C 0.28467(19) 0.51662(15) 0.48686(10) 0.0489(7) Uani 0.866(4) 1 d PDU B 3 
H79 H 0.3096 0.5605 0.4755 0.059 Uiso 0.866(4) 1 calc PR B 3 
C80 C 0.2211(3) 0.52943(17) 0.50933(17) 0.0546(9) Uani 0.866(4) 1 d PDU B 3 
H80 H 0.2030 0.5819 0.5131 0.066 Uiso 0.866(4) 1 calc PR B 3 
C81 C 0.1843(3) 0.4646(2) 0.52625(17) 0.0493(8) Uani 0.866(4) 1 d PDU B 3 
H81 H 0.1412 0.4731 0.5413 0.059 Uiso 0.866(4) 1 calc PR B 3 
C82 C 0.21158(16) 0.38673(16) 0.52084(11) 0.0400(6) Uani 0.866(4) 1 d PDU B 3 
H82 H 0.1865 0.3432 0.5324 0.048 Uiso 0.866(4) 1 calc PR B 3 
C83 C 0.30439(16) 0.28765(13) 0.49259(10) 0.0530(7) Uani 0.866(4) 1 d PDU B 3 
H83A H 0.3399 0.2880 0.4707 0.080 Uiso 0.866(4) 1 calc PR B 3 
H83B H 0.2576 0.2534 0.4805 0.080 Uiso 0.866(4) 1 calc PR B 3 
H83C H 0.3343 0.2673 0.5227 0.080 Uiso 0.866(4) 1 calc PR B 3 
C77' C 0.2827(11) 0.4031(11) 0.4793(7) 0.063(4) Uani 0.134(4) 1 d PDU B 4 
C78' C 0.2672(14) 0.4847(10) 0.4856(8) 0.075(4) Uani 0.134(4) 1 d PDU B 4 
H78' H 0.2964 0.5239 0.4730 0.090 Uiso 0.134(4) 1 calc PR B 4 
C79' C 0.209(2) 0.5089(12) 0.5103(15) 0.071(5) Uani 0.134(4) 1 d PDU B 4 
H79' H 0.1960 0.5636 0.5122 0.085 Uiso 0.134(4) 1 calc PR B 4 
C80' C 0.170(2) 0.4516(14) 0.5320(15) 0.069(5) Uani 0.134(4) 1 d PDU B 4 
H80' H 0.1333 0.4674 0.5502 0.083 Uiso 0.134(4) 1 calc PR B 4 
C81' C 0.1859(15) 0.3705(13) 0.5266(9) 0.063(4) Uani 0.134(4) 1 d PDU B 4 
H81' H 0.1588 0.3314 0.5406 0.075 Uiso 0.134(4) 1 calc PR B 4 
C82' C 0.2413(12) 0.3470(11) 0.5007(7) 0.066(4) Uani 0.134(4) 1 d PDU B 4 
H82' H 0.2513 0.2920 0.4975 0.079 Uiso 0.134(4) 1 calc PR B 4 
C83' C 0.3457(11) 0.3774(14) 0.4534(6) 0.084(5) Uani 0.134(4) 1 d PDU B 4 
H83D H 0.3811 0.3372 0.4717 0.126 Uiso 0.134(4) 1 calc PR B 4 
H83E H 0.3782 0.4235 0.4486 0.126 Uiso 0.134(4) 1 calc PR B 4 
H83F H 0.3188 0.3549 0.4233 0.126 Uiso 0.134(4) 1 calc PR B 4 
C84 C -0.51109(12) 0.74722(13) 0.07180(7) 0.0464(5) Uani 1 1 d DU . . 
C85 C -0.53770(12) 0.79436(13) 0.03143(7) 0.0475(5) Uani 1 1 d DU . . 
H85 H -0.5158 0.8460 0.0301 0.057 Uiso 1 1 calc R . . 
C86 C -0.59696(13) 0.76490(14) -0.00707(7) 0.0534(5) Uani 1 1 d DU . . 
H86 H -0.6139 0.7969 -0.0340 0.064 Uiso 1 1 calc R . . 
C87 C -0.63031(14) 0.68948(15) -0.00562(8) 0.0563(5) Uani 1 1 d DU . . 
H87 H -0.6702 0.6703 -0.0313 0.068 Uiso 1 1 calc R . . 
C88 C -0.60439(14) 0.64200(13) 0.03421(8) 0.0562(5) Uani 1 1 d DU . . 
H88 H -0.6269 0.5906 0.0356 0.067 Uiso 1 1 calc R . . 
C89 C -0.54511(13) 0.67079(13) 0.07186(7) 0.0509(5) Uani 1 1 d DU . . 
H89 H -0.5274 0.6377 0.0982 0.061 Uiso 1 1 calc R . . 
C90 C -0.44940(15) 0.7781(2) 0.11369(9) 0.0837(9) Uani 1 1 d DU . . 
H90A H -0.4240 0.7332 0.1326 0.126 Uiso 1 1 calc R . . 
H90B H -0.4766 0.8123 0.1323 0.126 Uiso 1 1 calc R . . 
H90C H -0.4079 0.8089 0.1032 0.126 Uiso 1 1 calc R . . 
 
loop_ 
 _atom_site_aniso_label 
 _atom_site_aniso_U_11 
 _atom_site_aniso_U_22 
 _atom_site_aniso_U_33 
 _atom_site_aniso_U_23 
 _atom_site_aniso_U_13 
 _atom_site_aniso_U_12 
O1 0.0139(5) 0.0325(6) 0.0309(6) -0.0041(5) 0.0024(4) 0.0012(4) 
O2 0.0156(5) 0.0285(5) 0.0242(5) -0.0066(4) 0.0044(4) 0.0055(4) 
O3 0.0156(5) 0.0230(5) 0.0235(5) -0.0067(4) 0.0042(4) 0.0001(4) 
O4 0.0243(5) 0.0269(5) 0.0202(5) -0.0073(4) 0.0009(4) 0.0011(4) 
O5 0.0216(5) 0.0340(6) 0.0265(5) -0.0095(5) -0.0033(4) -0.0027(4) 
O6 0.0148(5) 0.0275(5) 0.0293(5) 0.0105(4) 0.0072(4) 0.0018(4) 
O7 0.0159(5) 0.0273(5) 0.0265(5) 0.0105(4) 0.0058(4) 0.0040(4) 
O8 0.0234(5) 0.0247(5) 0.0270(5) 0.0031(4) 0.0137(4) -0.0005(4) 
O9 0.0258(5) 0.0232(5) 0.0237(5) 0.0055(4) 0.0098(4) 0.0027(4) 
O10 0.0144(5) 0.0257(5) 0.0251(5) 0.0019(4) 0.0058(4) 0.0020(4) 
O11 0.0141(5) 0.0333(6) 0.0313(6) -0.0017(5) 0.0026(4) 0.0003(4) 
O12 0.0163(5) 0.0220(5) 0.0256(5) -0.0063(4) 0.0058(4) -0.0013(4) 
O13 0.0165(5) 0.0276(5) 0.0237(5) -0.0043(4) 0.0058(4) 0.0049(4) 
O14 0.0272(6) 0.0392(7) 0.0259(6) -0.0076(5) -0.0050(4) -0.0034(5) 
O15 0.0311(6) 0.0297(6) 0.0201(5) -0.0061(4) -0.0005(4) 0.0037(5) 
O16 0.0290(6) 0.0247(5) 0.0292(6) 0.0091(4) 0.0149(5) 0.0057(4) 
O17 0.0300(6) 0.0308(6) 0.0384(6) 0.0110(5) 0.0231(5) 0.0053(5) 
O18 0.0167(5) 0.0249(5) 0.0250(5) 0.0090(4) 0.0068(4) 0.0045(4) 
O19 0.0149(5) 0.0269(5) 0.0309(5) 0.0108(4) 0.0087(4) 0.0018(4) 
O20 0.0141(5) 0.0248(5) 0.0237(5) 0.0008(4) 0.0059(4) 0.0016(4) 
C1 0.0163(6) 0.0165(6) 0.0166(6) 0.0020(5) 0.0019(5) -0.0023(5) 
C2 0.0169(6) 0.0186(7) 0.0188(6) 0.0005(5) 0.0030(5) -0.0004(5) 
C3 0.0235(7) 0.0169(7) 0.0186(7) 0.0001(5) 0.0042(5) -0.0010(5) 
C4 0.0206(7) 0.0220(7) 0.0196(7) 0.0003(5) -0.0005(5) -0.0051(6) 
C5 0.0153(6) 0.0219(7) 0.0229(7) 0.0023(6) 0.0009(5) -0.0012(5) 
C6 0.0171(7) 0.0175(6) 0.0188(6) 0.0024(5) 0.0026(5) -0.0014(5) 
C7 0.0153(7) 0.0196(7) 0.0225(7) 0.0024(5) 0.0024(5) -0.0003(5) 
C8 0.0161(6) 0.0182(7) 0.0186(6) 0.0008(5) 0.0037(5) 0.0003(5) 
C9 0.0137(6) 0.0224(7) 0.0218(7) 0.0010(5) 0.0040(5) 0.0030(5) 
C10 0.0191(7) 0.0191(7) 0.0183(6) 0.0004(5) 0.0067(5) 0.0040(5) 
C11 0.0169(6) 0.0172(6) 0.0165(6) 0.0003(5) 0.0033(5) -0.0012(5) 
C12 0.0136(6) 0.0183(7) 0.0191(6) 0.0006(5) 0.0046(5) 0.0000(5) 
C13 0.0160(6) 0.0162(6) 0.0165(6) 0.0017(5) 0.0044(5) 0.0000(5) 
C14 0.0129(6) 0.0160(6) 0.0165(6) -0.0004(5) 0.0028(5) 0.0003(5) 
C15 0.0143(6) 0.0165(6) 0.0154(6) -0.0028(5) 0.0029(5) -0.0001(5) 
C16 0.0122(6) 0.0200(7) 0.0200(6) -0.0008(5) 0.0034(5) 0.0014(5) 
C17 0.0152(6) 0.0198(7) 0.0196(6) -0.0010(5) 0.0057(5) -0.0021(5) 
C18 0.0178(7) 0.0186(7) 0.0180(6) 0.0015(5) 0.0032(5) 0.0017(5) 
C19 0.0134(6) 0.0213(7) 0.0207(7) -0.0003(5) 0.0032(5) 0.0024(5) 
C20 0.0147(6) 0.0177(6) 0.0175(6) -0.0024(5) 0.0039(5) -0.0006(5) 
C21 0.0155(6) 0.0185(7) 0.0179(6) -0.0039(5) 0.0043(5) -0.0012(5) 
C22 0.0153(6) 0.0176(7) 0.0178(6) -0.0029(5) 0.0039(5) -0.0025(5) 
C23 0.0153(6) 0.0209(7) 0.0206(7) -0.0036(5) 0.0047(5) -0.0019(5) 
C24 0.0203(7) 0.0188(7) 0.0194(6) -0.0040(5) 0.0094(5) -0.0052(5) 
C25 0.0236(7) 0.0165(7) 0.0169(6) -0.0021(5) 0.0055(5) -0.0008(5) 
C26 0.0167(6) 0.0182(7) 0.0195(6) -0.0026(5) 0.0044(5) 0.0005(5) 
C27 0.0161(6) 0.0162(6) 0.0160(6) -0.0045(5) 0.0038(5) -0.0021(5) 
C28 0.0252(8) 0.0311(8) 0.0220(7) -0.0057(6) 0.0056(6) 0.0017(6) 
C29 0.0210(8) 0.0420(10) 0.0282(8) -0.0061(7) -0.0032(6) -0.0061(7) 
C30 0.0175(7) 0.0282(8) 0.0243(7) -0.0022(6) 0.0077(6) 0.0054(6) 
C31 0.0150(7) 0.0411(9) 0.0400(9) -0.0207(8) 0.0050(6) -0.0036(6) 
C32 0.0155(7) 0.0385(9) 0.0453(10) 0.0177(8) 0.0095(7) 0.0004(6) 
C33 0.0167(7) 0.0272(8) 0.0299(8) 0.0090(6) 0.0022(6) 0.0040(6) 
C34 0.0242(8) 0.0318(8) 0.0307(8) 0.0006(7) 0.0157(6) -0.0002(6) 
C35 0.0293(8) 0.0278(8) 0.0229(7) 0.0061(6) 0.0071(6) 0.0059(6) 
C36 0.0163(6) 0.0154(6) 0.0169(6) 0.0029(5) 0.0049(5) 0.0003(5) 
C37 0.0142(6) 0.0186(7) 0.0198(6) 0.0019(5) 0.0050(5) 0.0003(5) 
C38 0.0161(6) 0.0163(6) 0.0188(6) 0.0019(5) 0.0038(5) -0.0014(5) 
C39 0.0188(7) 0.0181(7) 0.0191(6) 0.0024(5) 0.0068(5) 0.0038(5) 
C40 0.0129(6) 0.0225(7) 0.0223(7) 0.0046(6) 0.0045(5) 0.0035(5) 
C41 0.0150(6) 0.0179(7) 0.0189(6) 0.0034(5) 0.0042(5) 0.0007(5) 
C42 0.0154(7) 0.0204(7) 0.0220(7) 0.0052(5) 0.0030(5) 0.0000(5) 
C43 0.0168(7) 0.0196(7) 0.0192(7) 0.0041(5) 0.0017(5) -0.0017(5) 
C44 0.0175(7) 0.0240(7) 0.0221(7) 0.0038(6) -0.0006(5) -0.0011(6) 
C45 0.0245(7) 0.0252(7) 0.0183(7) 0.0021(6) -0.0024(6) -0.0038(6) 
C46 0.0282(8) 0.0201(7) 0.0177(7) 0.0005(5) 0.0025(6) 0.0014(6) 
C47 0.0195(7) 0.0207(7) 0.0196(7) 0.0021(5) 0.0025(5) 0.0004(5) 
C48 0.0185(7) 0.0173(7) 0.0158(6) 0.0034(5) 0.0024(5) -0.0014(5) 
C49 0.0125(6) 0.0168(6) 0.0174(6) 0.0006(5) 0.0032(5) 0.0001(5) 
C50 0.0171(6) 0.0169(6) 0.0173(6) -0.0020(5) 0.0052(5) -0.0019(5) 
C51 0.0199(7) 0.0182(7) 0.0203(7) -0.0006(5) 0.0067(5) 0.0013(5) 
C52 0.0264(7) 0.0176(7) 0.0211(7) 0.0015(5) 0.0088(6) 0.0019(6) 
C53 0.0250(7) 0.0221(7) 0.0245(7) 0.0007(6) 0.0136(6) -0.0014(6) 
C54 0.0184(7) 0.0205(7) 0.0252(7) -0.0012(6) 0.0088(6) 0.0007(5) 
C55 0.0170(6) 0.0179(7) 0.0184(6) -0.0025(5) 0.0056(5) -0.0024(5) 
C56 0.0164(6) 0.0184(7) 0.0176(6) -0.0041(5) 0.0047(5) -0.0019(5) 
C57 0.0141(6) 0.0169(6) 0.0175(6) -0.0026(5) 0.0033(5) -0.0007(5) 
C58 0.0129(6) 0.0199(7) 0.0192(6) -0.0016(5) 0.0038(5) 0.0013(5) 
C59 0.0174(7) 0.0171(6) 0.0174(6) 0.0009(5) 0.0032(5) 0.0016(5) 
C60 0.0157(6) 0.0185(7) 0.0199(7) -0.0013(5) 0.0063(5) -0.0027(5) 
C61 0.0127(6) 0.0194(7) 0.0209(7) -0.0004(5) 0.0039(5) 0.0013(5) 
C62 0.0150(6) 0.0152(6) 0.0158(6) -0.0021(5) 0.0028(5) -0.0004(5) 
C63 0.0167(7) 0.0430(10) 0.0440(10) -0.0233(8) 0.0081(7) -0.0066(7) 
C64 0.0194(7) 0.0308(8) 0.0259(7) -0.0004(6) 0.0093(6) 0.0063(6) 
C65 0.0257(8) 0.0481(10) 0.0261(8) -0.0039(7) -0.0048(6) -0.0094(7) 
C66 0.0333(9) 0.0344(9) 0.0224(7) -0.0050(6) 0.0048(6) 0.0058(7) 
C67 0.0296(8) 0.0267(8) 0.0220(7) 0.0049(6) 0.0070(6) 0.0053(6) 
C68 0.0291(8) 0.0375(9) 0.0379(9) 0.0081(7) 0.0216(7) 0.0052(7) 
C69 0.0168(7) 0.0231(7) 0.0253(7) 0.0049(6) 0.0023(6) 0.0030(5) 
C70 0.0158(7) 0.0397(9) 0.0457(10) 0.0187(8) 0.0118(7) 0.0023(6) 
C71 0.0523(18) 0.0477(18) 0.062(2) 0.0218(14) 0.0382(15) 0.0270(13) 
C72 0.064(6) 0.053(3) 0.063(3) 0.036(2) 0.042(2) 0.031(2) 
C73 0.084(3) 0.066(3) 0.045(2) 0.0228(17) 0.034(2) 0.0309(19) 
C74 0.097(3) 0.065(2) 0.051(2) 0.0068(18) 0.0397(19) 0.003(2) 
C75 0.113(4) 0.047(2) 0.0490(19) 0.0179(17) 0.047(2) 0.0071(19) 
C76 0.079(5) 0.051(2) 0.045(3) 0.020(2) 0.035(2) 0.022(2) 
C91 0.052(2) 0.072(3) 0.098(3) 0.021(2) 0.036(2) 0.0189(18) 
C93 0.032(3) 0.065(4) 0.033(3) 0.005(3) 0.012(2) 0.020(2) 
C94 0.048(7) 0.057(6) 0.046(5) 0.030(4) 0.034(3) 0.032(3) 
C95 0.053(4) 0.036(3) 0.083(5) 0.011(3) 0.032(3) 0.011(3) 
C96 0.048(4) 0.050(4) 0.048(3) -0.007(3) 0.014(3) 0.004(3) 
C97 0.049(5) 0.057(4) 0.033(4) 0.018(3) 0.015(3) 0.009(3) 
C98 0.041(4) 0.041(5) 0.047(4) 0.013(3) 0.017(3) 0.001(3) 
C99 0.045(5) 0.134(9) 0.054(4) -0.016(6) 0.001(3) 0.023(5) 
C77 0.0382(12) 0.0290(11) 0.0324(11) -0.0034(9) 0.0041(10) -0.0006(9) 
C78 0.0391(13) 0.0392(13) 0.0284(10) 0.0000(9) 0.0025(9) -0.0043(10) 
C79 0.0722(18) 0.0315(12) 0.0350(12) 0.0062(11) -0.0043(12) -0.0051(12) 
C80 0.087(3) 0.0329(14) 0.0335(13) -0.0073(14) -0.0086(15) 0.0220(16) 
C81 0.050(2) 0.0628(19) 0.0323(16) -0.0131(17) 0.0037(12) 0.0174(17) 
C82 0.0434(15) 0.0408(14) 0.0360(12) -0.0060(10) 0.0094(11) -0.0051(10) 
C83 0.0637(16) 0.0332(12) 0.0683(17) -0.0029(11) 0.0280(13) 0.0031(11) 
C77' 0.060(8) 0.075(8) 0.047(7) 0.007(7) -0.006(5) -0.004(7) 
C78' 0.075(9) 0.072(8) 0.059(8) 0.001(8) -0.021(6) -0.011(8) 
C79' 0.083(10) 0.050(8) 0.060(9) -0.001(8) -0.020(7) -0.003(8) 
C80' 0.076(10) 0.053(8) 0.061(10) 0.002(7) -0.017(7) 0.003(7) 
C81' 0.069(10) 0.054(7) 0.060(8) 0.004(7) 0.005(6) 0.001(8) 
C82' 0.069(9) 0.074(8) 0.051(7) 0.001(7) 0.004(6) -0.006(7) 
C83' 0.065(10) 0.125(13) 0.058(10) 0.017(10) 0.005(7) 0.007(9) 
C84 0.0418(11) 0.0625(13) 0.0375(10) -0.0006(9) 0.0143(8) 0.0188(9) 
C85 0.0483(11) 0.0508(12) 0.0490(11) 0.0141(9) 0.0227(9) 0.0114(9) 
C86 0.0581(13) 0.0667(14) 0.0384(10) 0.0205(10) 0.0174(9) 0.0214(11) 
C87 0.0523(13) 0.0682(14) 0.0488(12) -0.0127(11) 0.0125(10) 0.0121(11) 
C88 0.0629(14) 0.0403(11) 0.0741(15) 0.0019(10) 0.0337(12) 0.0106(10) 
C89 0.0616(13) 0.0516(12) 0.0465(11) 0.0198(9) 0.0271(10) 0.0312(10) 
C90 0.0560(15) 0.135(3) 0.0548(14) -0.0284(16) 0.0013(11) 0.0238(15) 
 
_geom_special_details 
; 
 All esds (except the esd in the dihedral angle between two l.s. planes) 
 are estimated using the full covariance matrix.  The cell esds are taken 
 into account individually in the estimation of esds in distances, angles 
 and torsion angles; correlations between esds in cell parameters are only 
 used when they are defined by crystal symmetry.  An approximate (isotropic) 
 treatment of cell esds is used for estimating esds involving l.s. planes. 
; 
 
loop_ 
 _geom_bond_atom_site_label_1 
 _geom_bond_atom_site_label_2 
 _geom_bond_distance 
 _geom_bond_site_symmetry_2 
 _geom_bond_publ_flag 
O1 C7 1.2292(16) . ? 
O2 C10 1.3684(16) . ? 
O2 C30 1.4242(16) . ? 
O3 C11 1.3591(16) . ? 
O3 C31 1.4217(17) . ? 
O4 C3 1.3640(17) . ? 
O4 C28 1.4294(17) . ? 
O5 C4 1.3670(17) . ? 
O5 C29 1.4307(18) . ? 
O6 C17 1.3582(16) . ? 
O6 C32 1.4246(17) . ? 
O7 C18 1.3625(16) . ? 
O7 C33 1.4305(16) . ? 
O8 C24 1.3695(16) . ? 
O8 C34 1.4325(17) . ? 
O9 C25 1.3619(17) . ? 
O9 C35 1.4329(18) . ? 
O10 C21 1.2315(16) . ? 
O11 C42 1.2304(16) . ? 
O12 C38 1.3606(16) . ? 
O12 C63 1.4215(17) . ? 
O13 C39 1.3653(16) . ? 
O13 C64 1.4260(16) . ? 
O14 C45 1.3644(17) . ? 
O14 C65 1.4256(19) . ? 
O15 C46 1.3646(17) . ? 
O15 C66 1.4293(19) . ? 
O16 C52 1.3609(17) . ? 
O16 C67 1.4324(18) . ? 
O17 C53 1.3693(17) . ? 
O17 C68 1.4331(18) . ? 
O18 C59 1.3634(16) . ? 
O18 C69 1.4302(16) . ? 
O19 C60 1.3563(16) . ? 
O19 C70 1.4261(17) . ? 
O20 C56 1.2334(16) . ? 
C1 C6 1.3890(19) . ? 
C1 C2 1.4048(19) . ? 
C1 C14 1.5358(18) . ? 
C2 C3 1.3771(19) . ? 
C2 H2 0.9300 . ? 
C3 C4 1.421(2) . ? 
C4 C5 1.374(2) . ? 
C5 C6 1.4160(19) . ? 
C5 H5 0.9300 . ? 
C6 C7 1.4750(19) . ? 
C7 C8 1.4829(19) . ? 
C8 C13 1.3904(18) . ? 
C8 C9 1.4099(19) . ? 
C9 C10 1.3707(19) . ? 
C9 H9 0.9300 . ? 
C10 C11 1.4179(19) . ? 
C11 C12 1.3856(19) . ? 
C12 C13 1.4062(18) . ? 
C12 H12 0.9300 . ? 
C13 C14 1.5318(18) . ? 
C14 C27 1.5313(18) . ? 
C14 C15 1.5385(18) . ? 
C15 C20 1.3886(18) . ? 
C15 C16 1.4037(18) . ? 
C16 C17 1.3784(19) . ? 
C16 H16 0.9300 . ? 
C17 C18 1.4191(19) . ? 
C18 C19 1.3746(19) . ? 
C19 C20 1.4125(19) . ? 
C19 H19 0.9300 . ? 
C20 C21 1.4806(18) . ? 
C21 C22 1.4778(19) . ? 
C22 C27 1.3894(18) . ? 
C22 C23 1.4127(19) . ? 
C23 C24 1.370(2) . ? 
C23 H23 0.9300 . ? 
C24 C25 1.4213(19) . ? 
C25 C26 1.3830(19) . ? 
C26 C27 1.4035(19) . ? 
C26 H26 0.9300 . ? 
C28 H28A 0.9600 . ? 
C28 H28B 0.9600 . ? 
C28 H28C 0.9600 . ? 
C29 H29A 0.9600 . ? 
C29 H29B 0.9600 . ? 
C29 H29C 0.9600 . ? 
C30 H30A 0.9600 . ? 
C30 H30B 0.9600 . ? 
C30 H30C 0.9600 . ? 
C31 H31A 0.9600 . ? 
C31 H31B 0.9600 . ? 
C31 H31C 0.9600 . ? 
C32 H32A 0.9600 . ? 
C32 H32B 0.9600 . ? 
C32 H32C 0.9600 . ? 
C33 H33A 0.9600 . ? 
C33 H33B 0.9600 . ? 
C33 H33C 0.9600 . ? 
C34 H34A 0.9600 . ? 
C34 H34B 0.9600 . ? 
C34 H34C 0.9600 . ? 
C35 H35A 0.9600 . ? 
C35 H35B 0.9600 . ? 
C35 H35C 0.9600 . ? 
C36 C41 1.3925(18) . ? 
C36 C37 1.4038(18) . ? 
C36 C49 1.5303(18) . ? 
C37 C38 1.3839(19) . ? 
C37 H37 0.9300 . ? 
C38 C39 1.4193(18) . ? 
C39 C40 1.371(2) . ? 
C40 C41 1.4106(19) . ? 
C40 H40 0.9300 . ? 
C41 C42 1.4798(19) . ? 
C42 C43 1.481(2) . ? 
C43 C48 1.3895(19) . ? 
C43 C44 1.4150(19) . ? 
C44 C45 1.378(2) . ? 
C44 H44 0.9300 . ? 
C45 C46 1.418(2) . ? 
C46 C47 1.378(2) . ? 
C47 C48 1.3997(19) . ? 
C47 H47 0.9300 . ? 
C48 C49 1.5330(18) . ? 
C49 C50 1.5287(18) . ? 
C49 C62 1.5344(18) . ? 
C50 C55 1.3897(19) . ? 
C50 C51 1.4029(19) . ? 
C51 C52 1.3835(19) . ? 
C51 H51 0.9300 . ? 
C52 C53 1.420(2) . ? 
C53 C54 1.372(2) . ? 
C54 C55 1.4121(19) . ? 
C54 H54 0.9300 . ? 
C55 C56 1.4777(19) . ? 
C56 C57 1.4804(18) . ? 
C57 C62 1.3929(18) . ? 
C57 C58 1.4125(19) . ? 
C58 C59 1.3759(19) . ? 
C58 H58 0.9300 . ? 
C59 C60 1.4213(18) . ? 
C60 C61 1.3771(19) . ? 
C61 C62 1.4054(18) . ? 
C61 H61 0.9300 . ? 
C63 H63A 0.9600 . ? 
C63 H63B 0.9600 . ? 
C63 H63C 0.9600 . ? 
C64 H64A 0.9600 . ? 
C64 H64B 0.9600 . ? 
C64 H64C 0.9600 . ? 
C65 H65A 0.9600 . ? 
C65 H65B 0.9600 . ? 
C65 H65C 0.9600 . ? 
C66 H66A 0.9600 . ? 
C66 H66B 0.9600 . ? 
C66 H66C 0.9600 . ? 
C67 H67A 0.9600 . ? 
C67 H67B 0.9600 . ? 
C67 H67C 0.9600 . ? 
C68 H68A 0.9600 . ? 
C68 H68B 0.9600 . ? 
C68 H68C 0.9600 . ? 
C69 H69A 0.9600 . ? 
C69 H69B 0.9600 . ? 
C69 H69C 0.9600 . ? 
C70 H70A 0.9600 . ? 
C70 H70B 0.9600 . ? 
C70 H70C 0.9600 . ? 
C71 C76 1.389(4) . ? 
C71 C72 1.396(4) . ? 
C71 C91 1.495(4) . ? 
C72 C73 1.377(5) . ? 
C72 H72 0.9300 . ? 
C73 C74 1.377(4) . ? 
C73 H73 0.9300 . ? 
C74 C75 1.377(4) . ? 
C74 H74 0.9300 . ? 
C75 C76 1.379(4) . ? 
C75 H75 0.9300 . ? 
C76 H76 0.9300 . ? 
C91 H91A 0.9600 . ? 
C91 H91B 0.9600 . ? 
C91 H91C 0.9600 . ? 
C93 C98 1.388(4) . ? 
C93 C94 1.397(5) . ? 
C93 C99 1.494(4) . ? 
C94 C95 1.378(5) . ? 
C94 H94 0.9300 . ? 
C95 C96 1.376(5) . ? 
C95 H95 0.9300 . ? 
C96 C97 1.377(5) . ? 
C96 H96 0.9300 . ? 
C97 C98 1.378(5) . ? 
C97 H97 0.9300 . ? 
C98 H98 0.9300 . ? 
C99 H99A 0.9600 . ? 
C99 H99B 0.9600 . ? 
C99 H99C 0.9600 . ? 
C77 C82 1.383(3) . ? 
C77 C78 1.398(3) . ? 
C77 C83 1.496(3) . ? 
C78 C79 1.379(3) . ? 
C78 H78 0.9300 . ? 
C79 C80 1.378(3) . ? 
C79 H79 0.9300 . ? 
C80 C81 1.376(3) . ? 
C80 H80 0.9300 . ? 
C81 C82 1.381(3) . ? 
C81 H81 0.9300 . ? 
C82 H82 0.9300 . ? 
C83 H83A 0.9600 . ? 
C83 H83B 0.9600 . ? 
C83 H83C 0.9600 . ? 
C77' C82' 1.381(8) . ? 
C77' C78' 1.389(8) . ? 
C77' C83' 1.482(8) . ? 
C78' C79' 1.391(8) . ? 
C78' H78' 0.9300 . ? 
C79' C80' 1.374(8) . ? 
C79' H79' 0.9300 . ? 
C80' C81' 1.378(9) . ? 
C80' H80' 0.9300 . ? 
C81' C82' 1.371(8) . ? 
C81' H81' 0.9300 . ? 
C82' H82' 0.9300 . ? 
C83' H83D 0.9600 . ? 
C83' H83E 0.9600 . ? 
C83' H83F 0.9600 . ? 
C84 C89 1.380(3) . ? 
C84 C85 1.389(3) . ? 
C84 C90 1.488(3) . ? 
C85 C86 1.395(3) . ? 
C85 H85 0.9300 . ? 
C86 C87 1.365(3) . ? 
C86 H86 0.9300 . ? 
C87 C88 1.379(3) . ? 
C87 H87 0.9300 . ? 
C88 C89 1.376(3) . ? 
C88 H88 0.9300 . ? 
C89 H89 0.9300 . ? 
C90 H90A 0.9600 . ? 
C90 H90B 0.9600 . ? 
C90 H90C 0.9600 . ? 
 
loop_ 
 _geom_angle_atom_site_label_1 
 _geom_angle_atom_site_label_2 
 _geom_angle_atom_site_label_3 
 _geom_angle 
 _geom_angle_site_symmetry_1 
 _geom_angle_site_symmetry_3 
 _geom_angle_publ_flag 
C10 O2 C30 116.42(11) . . ? 
C11 O3 C31 116.99(11) . . ? 
C3 O4 C28 116.61(11) . . ? 
C4 O5 C29 116.88(12) . . ? 
C17 O6 C32 117.51(11) . . ? 
C18 O7 C33 117.00(11) . . ? 
C24 O8 C34 116.98(11) . . ? 
C25 O9 C35 116.82(11) . . ? 
C38 O12 C63 116.87(11) . . ? 
C39 O13 C64 116.58(11) . . ? 
C45 O14 C65 117.48(12) . . ? 
C46 O15 C66 116.68(11) . . ? 
C52 O16 C67 117.03(11) . . ? 
C53 O17 C68 117.11(12) . . ? 
C59 O18 C69 117.37(11) . . ? 
C60 O19 C70 117.65(11) . . ? 
C6 C1 C2 119.26(12) . . ? 
C6 C1 C14 123.07(12) . . ? 
C2 C1 C14 117.67(12) . . ? 
C3 C2 C1 120.79(13) . . ? 
C3 C2 H2 119.6 . . ? 
C1 C2 H2 119.6 . . ? 
O4 C3 C2 124.64(13) . . ? 
O4 C3 C4 115.30(12) . . ? 
C2 C3 C4 120.06(13) . . ? 
O5 C4 C5 125.85(13) . . ? 
O5 C4 C3 114.79(13) . . ? 
C5 C4 C3 119.36(12) . . ? 
C4 C5 C6 120.50(13) . . ? 
C4 C5 H5 119.7 . . ? 
C6 C5 H5 119.7 . . ? 
C1 C6 C5 120.01(13) . . ? 
C1 C6 C7 121.85(12) . . ? 
C5 C6 C7 118.12(12) . . ? 
O1 C7 C6 121.62(12) . . ? 
O1 C7 C8 121.40(13) . . ? 
C6 C7 C8 116.97(12) . . ? 
C13 C8 C9 120.32(12) . . ? 
C13 C8 C7 122.16(12) . . ? 
C9 C8 C7 117.51(12) . . ? 
C10 C9 C8 120.36(12) . . ? 
C10 C9 H9 119.8 . . ? 
C8 C9 H9 119.8 . . ? 
O2 C10 C9 125.39(12) . . ? 
O2 C10 C11 114.93(12) . . ? 
C9 C10 C11 119.68(12) . . ? 
O3 C11 C12 125.60(12) . . ? 
O3 C11 C10 114.37(12) . . ? 
C12 C11 C10 120.03(12) . . ? 
C11 C12 C13 120.30(12) . . ? 
C11 C12 H12 119.8 . . ? 
C13 C12 H12 119.8 . . ? 
C8 C13 C12 119.28(12) . . ? 
C8 C13 C14 122.39(12) . . ? 
C12 C13 C14 118.17(11) . . ? 
C27 C14 C13 110.40(10) . . ? 
C27 C14 C1 107.16(10) . . ? 
C13 C14 C1 112.52(11) . . ? 
C27 C14 C15 112.72(10) . . ? 
C13 C14 C15 106.43(10) . . ? 
C1 C14 C15 107.66(10) . . ? 
C20 C15 C16 118.99(12) . . ? 
C20 C15 C14 123.02(12) . . ? 
C16 C15 C14 117.98(11) . . ? 
C17 C16 C15 120.88(12) . . ? 
C17 C16 H16 119.6 . . ? 
C15 C16 H16 119.6 . . ? 
O6 C17 C16 125.29(12) . . ? 
O6 C17 C18 114.57(12) . . ? 
C16 C17 C18 120.13(12) . . ? 
O7 C18 C19 126.42(12) . . ? 
O7 C18 C17 114.47(12) . . ? 
C19 C18 C17 119.11(12) . . ? 
C18 C19 C20 120.61(12) . . ? 
C18 C19 H19 119.7 . . ? 
C20 C19 H19 119.7 . . ? 
C15 C20 C19 120.21(12) . . ? 
C15 C20 C21 121.67(12) . . ? 
C19 C20 C21 118.07(12) . . ? 
O10 C21 C22 121.15(12) . . ? 
O10 C21 C20 121.62(12) . . ? 
C22 C21 C20 117.21(11) . . ? 
C27 C22 C23 120.14(12) . . ? 
C27 C22 C21 122.14(12) . . ? 
C23 C22 C21 117.71(12) . . ? 
C24 C23 C22 120.68(13) . . ? 
C24 C23 H23 119.7 . . ? 
C22 C23 H23 119.7 . . ? 
O8 C24 C23 125.28(13) . . ? 
O8 C24 C25 115.35(12) . . ? 
C23 C24 C25 119.37(12) . . ? 
O9 C25 C26 125.22(13) . . ? 
O9 C25 C24 114.95(12) . . ? 
C26 C25 C24 119.83(13) . . ? 
C25 C26 C27 120.84(13) . . ? 
C25 C26 H26 119.6 . . ? 
C27 C26 H26 119.6 . . ? 
C22 C27 C26 119.09(12) . . ? 
C22 C27 C14 122.75(12) . . ? 
C26 C27 C14 118.05(11) . . ? 
O4 C28 H28A 109.5 . . ? 
O4 C28 H28B 109.5 . . ? 
H28A C28 H28B 109.5 . . ? 
O4 C28 H28C 109.5 . . ? 
H28A C28 H28C 109.5 . . ? 
H28B C28 H28C 109.5 . . ? 
O5 C29 H29A 109.5 . . ? 
O5 C29 H29B 109.5 . . ? 
H29A C29 H29B 109.5 . . ? 
O5 C29 H29C 109.5 . . ? 
H29A C29 H29C 109.5 . . ? 
H29B C29 H29C 109.5 . . ? 
O2 C30 H30A 109.5 . . ? 
O2 C30 H30B 109.5 . . ? 
H30A C30 H30B 109.5 . . ? 
O2 C30 H30C 109.5 . . ? 
H30A C30 H30C 109.5 . . ? 
H30B C30 H30C 109.5 . . ? 
O3 C31 H31A 109.5 . . ? 
O3 C31 H31B 109.5 . . ? 
H31A C31 H31B 109.5 . . ? 
O3 C31 H31C 109.5 . . ? 
H31A C31 H31C 109.5 . . ? 
H31B C31 H31C 109.5 . . ? 
O6 C32 H32A 109.5 . . ? 
O6 C32 H32B 109.5 . . ? 
H32A C32 H32B 109.5 . . ? 
O6 C32 H32C 109.5 . . ? 
H32A C32 H32C 109.5 . . ? 
H32B C32 H32C 109.5 . . ? 
O7 C33 H33A 109.5 . . ? 
O7 C33 H33B 109.5 . . ? 
H33A C33 H33B 109.5 . . ? 
O7 C33 H33C 109.5 . . ? 
H33A C33 H33C 109.5 . . ? 
H33B C33 H33C 109.5 . . ? 
O8 C34 H34A 109.5 . . ? 
O8 C34 H34B 109.5 . . ? 
H34A C34 H34B 109.5 . . ? 
O8 C34 H34C 109.5 . . ? 
H34A C34 H34C 109.5 . . ? 
H34B C34 H34C 109.5 . . ? 
O9 C35 H35A 109.5 . . ? 
O9 C35 H35B 109.5 . . ? 
H35A C35 H35B 109.5 . . ? 
O9 C35 H35C 109.5 . . ? 
H35A C35 H35C 109.5 . . ? 
H35B C35 H35C 109.5 . . ? 
C41 C36 C37 119.35(12) . . ? 
C41 C36 C49 122.48(12) . . ? 
C37 C36 C49 117.99(11) . . ? 
C38 C37 C36 120.33(12) . . ? 
C38 C37 H37 119.8 . . ? 
C36 C37 H37 119.8 . . ? 
O12 C38 C37 125.34(12) . . ? 
O12 C38 C39 114.51(12) . . ? 
C37 C38 C39 120.14(12) . . ? 
O13 C39 C40 125.70(12) . . ? 
O13 C39 C38 114.80(12) . . ? 
C40 C39 C38 119.49(12) . . ? 
C39 C40 C41 120.49(12) . . ? 
C39 C40 H40 119.8 . . ? 
C41 C40 H40 119.8 . . ? 
C36 C41 C40 120.14(12) . . ? 
C36 C41 C42 121.85(12) . . ? 
C40 C41 C42 117.99(12) . . ? 
O11 C42 C41 121.54(13) . . ? 
O11 C42 C43 121.25(12) . . ? 
C41 C42 C43 117.19(12) . . ? 
C48 C43 C44 119.78(13) . . ? 
C48 C43 C42 121.71(12) . . ? 
C44 C43 C42 118.51(12) . . ? 
C45 C44 C43 120.54(13) . . ? 
C45 C44 H44 119.7 . . ? 
C43 C44 H44 119.7 . . ? 
O14 C45 C44 125.78(13) . . ? 
O14 C45 C46 114.86(13) . . ? 
C44 C45 C46 119.35(13) . . ? 
O15 C46 C47 124.59(13) . . ? 
O15 C46 C45 115.49(12) . . ? 
C47 C46 C45 119.92(13) . . ? 
C46 C47 C48 120.94(13) . . ? 
C46 C47 H47 119.5 . . ? 
C48 C47 H47 119.5 . . ? 
C43 C48 C47 119.47(12) . . ? 
C43 C48 C49 122.97(12) . . ? 
C47 C48 C49 117.55(12) . . ? 
C50 C49 C36 110.38(11) . . ? 
C50 C49 C48 107.03(10) . . ? 
C36 C49 C48 112.63(11) . . ? 
C50 C49 C62 113.07(11) . . ? 
C36 C49 C62 106.57(10) . . ? 
C48 C49 C62 107.21(10) . . ? 
C55 C50 C51 119.41(12) . . ? 
C55 C50 C49 122.71(12) . . ? 
C51 C50 C49 117.76(12) . . ? 
C52 C51 C50 120.73(13) . . ? 
C52 C51 H51 119.6 . . ? 
C50 C51 H51 119.6 . . ? 
O16 C52 C51 125.02(13) . . ? 
O16 C52 C53 115.25(12) . . ? 
C51 C52 C53 119.72(13) . . ? 
O17 C53 C54 125.34(13) . . ? 
O17 C53 C52 115.13(13) . . ? 
C54 C53 C52 119.53(13) . . ? 
C53 C54 C55 120.67(13) . . ? 
C53 C54 H54 119.7 . . ? 
C55 C54 H54 119.7 . . ? 
C50 C55 C54 119.87(13) . . ? 
C50 C55 C56 121.90(12) . . ? 
C54 C55 C56 118.23(12) . . ? 
O20 C56 C55 121.12(12) . . ? 
O20 C56 C57 121.34(12) . . ? 
C55 C56 C57 117.53(11) . . ? 
C62 C57 C58 119.96(12) . . ? 
C62 C57 C56 121.42(12) . . ? 
C58 C57 C56 118.59(12) . . ? 
C59 C58 C57 120.74(12) . . ? 
C59 C58 H58 119.6 . . ? 
C57 C58 H58 119.6 . . ? 
O18 C59 C58 126.53(12) . . ? 
O18 C59 C60 114.25(12) . . ? 
C58 C59 C60 119.22(12) . . ? 
O19 C60 C61 125.31(12) . . ? 
O19 C60 C59 114.73(12) . . ? 
C61 C60 C59 119.95(12) . . ? 
C60 C61 C62 121.05(12) . . ? 
C60 C61 H61 119.5 . . ? 
C62 C61 H61 119.5 . . ? 
C57 C62 C61 119.03(12) . . ? 
C57 C62 C49 122.94(12) . . ? 
C61 C62 C49 118.02(11) . . ? 
O12 C63 H63A 109.5 . . ? 
O12 C63 H63B 109.5 . . ? 
H63A C63 H63B 109.5 . . ? 
O12 C63 H63C 109.5 . . ? 
H63A C63 H63C 109.5 . . ? 
H63B C63 H63C 109.5 . . ? 
O13 C64 H64A 109.5 . . ? 
O13 C64 H64B 109.5 . . ? 
H64A C64 H64B 109.5 . . ? 
O13 C64 H64C 109.5 . . ? 
H64A C64 H64C 109.5 . . ? 
H64B C64 H64C 109.5 . . ? 
O14 C65 H65A 109.5 . . ? 
O14 C65 H65B 109.5 . . ? 
H65A C65 H65B 109.5 . . ? 
O14 C65 H65C 109.5 . . ? 
H65A C65 H65C 109.5 . . ? 
H65B C65 H65C 109.5 . . ? 
O15 C66 H66A 109.5 . . ? 
O15 C66 H66B 109.5 . . ? 
H66A C66 H66B 109.5 . . ? 
O15 C66 H66C 109.5 . . ? 
H66A C66 H66C 109.5 . . ? 
H66B C66 H66C 109.5 . . ? 
O16 C67 H67A 109.5 . . ? 
O16 C67 H67B 109.5 . . ? 
H67A C67 H67B 109.5 . . ? 
O16 C67 H67C 109.5 . . ? 
H67A C67 H67C 109.5 . . ? 
H67B C67 H67C 109.5 . . ? 
O17 C68 H68A 109.5 . . ? 
O17 C68 H68B 109.5 . . ? 
H68A C68 H68B 109.5 . . ? 
O17 C68 H68C 109.5 . . ? 
H68A C68 H68C 109.5 . . ? 
H68B C68 H68C 109.5 . . ? 
O18 C69 H69A 109.5 . . ? 
O18 C69 H69B 109.5 . . ? 
H69A C69 H69B 109.5 . . ? 
O18 C69 H69C 109.5 . . ? 
H69A C69 H69C 109.5 . . ? 
H69B C69 H69C 109.5 . . ? 
O19 C70 H70A 109.5 . . ? 
O19 C70 H70B 109.5 . . ? 
H70A C70 H70B 109.5 . . ? 
O19 C70 H70C 109.5 . . ? 
H70A C70 H70C 109.5 . . ? 
H70B C70 H70C 109.5 . . ? 
C76 C71 C72 117.1(3) . . ? 
C76 C71 C91 120.9(3) . . ? 
C72 C71 C91 122.0(3) . . ? 
C73 C72 C71 121.9(3) . . ? 
C73 C72 H72 119.0 . . ? 
C71 C72 H72 119.0 . . ? 
C74 C73 C72 119.9(4) . . ? 
C74 C73 H73 120.0 . . ? 
C72 C73 H73 120.0 . . ? 
C75 C74 C73 119.1(3) . . ? 
C75 C74 H74 120.4 . . ? 
C73 C74 H74 120.4 . . ? 
C74 C75 C76 121.0(3) . . ? 
C74 C75 H75 119.5 . . ? 
C76 C75 H75 119.5 . . ? 
C75 C76 C71 120.9(3) . . ? 
C75 C76 H76 119.5 . . ? 
C71 C76 H76 119.5 . . ? 
C98 C93 C94 116.9(4) . . ? 
C98 C93 C99 121.8(5) . . ? 
C94 C93 C99 121.1(5) . . ? 
C95 C94 C93 121.4(4) . . ? 
C95 C94 H94 119.3 . . ? 
C93 C94 H94 119.3 . . ? 
C96 C95 C94 120.3(5) . . ? 
C96 C95 H95 119.8 . . ? 
C94 C95 H95 119.8 . . ? 
C95 C96 C97 119.2(4) . . ? 
C95 C96 H96 120.4 . . ? 
C97 C96 H96 120.4 . . ? 
C96 C97 C98 120.4(5) . . ? 
C96 C97 H97 119.8 . . ? 
C98 C97 H97 119.8 . . ? 
C97 C98 C93 121.6(4) . . ? 
C97 C98 H98 119.2 . . ? 
C93 C98 H98 119.2 . . ? 
C93 C99 H99A 109.5 . . ? 
C93 C99 H99B 109.5 . . ? 
H99A C99 H99B 109.5 . . ? 
C93 C99 H99C 109.5 . . ? 
H99A C99 H99C 109.5 . . ? 
H99B C99 H99C 109.5 . . ? 
C82 C77 C78 117.96(19) . . ? 
C82 C77 C83 121.1(2) . . ? 
C78 C77 C83 120.9(2) . . ? 
C79 C78 C77 120.7(2) . . ? 
C79 C78 H78 119.6 . . ? 
C77 C78 H78 119.6 . . ? 
C80 C79 C78 120.1(2) . . ? 
C80 C79 H79 120.0 . . ? 
C78 C79 H79 120.0 . . ? 
C81 C80 C79 120.0(2) . . ? 
C81 C80 H80 120.0 . . ? 
C79 C80 H80 120.0 . . ? 
C80 C81 C82 119.8(2) . . ? 
C80 C81 H81 120.1 . . ? 
C82 C81 H81 120.1 . . ? 
C81 C82 C77 121.4(2) . . ? 
C81 C82 H82 119.3 . . ? 
C77 C82 H82 119.3 . . ? 
C82' C77' C78' 117.5(9) . . ? 
C82' C77' C83' 121.2(11) . . ? 
C78' C77' C83' 121.1(11) . . ? 
C77' C78' C79' 121.2(10) . . ? 
C77' C78' H78' 119.4 . . ? 
C79' C78' H78' 119.4 . . ? 
C80' C79' C78' 119.6(11) . . ? 
C80' C79' H79' 120.2 . . ? 
C78' C79' H79' 120.2 . . ? 
C79' C80' C81' 119.5(11) . . ? 
C79' C80' H80' 120.3 . . ? 
C81' C80' H80' 120.3 . . ? 
C82' C81' C80' 120.4(10) . . ? 
C82' C81' H81' 119.8 . . ? 
C80' C81' H81' 119.8 . . ? 
C81' C82' C77' 121.6(10) . . ? 
C81' C82' H82' 119.2 . . ? 
C77' C82' H82' 119.2 . . ? 
C89 C84 C85 117.36(19) . . ? 
C89 C84 C90 121.1(2) . . ? 
C85 C84 C90 121.5(2) . . ? 
C84 C85 C86 120.6(2) . . ? 
C84 C85 H85 119.7 . . ? 
C86 C85 H85 119.7 . . ? 
C87 C86 C85 120.63(19) . . ? 
C87 C86 H86 119.7 . . ? 
C85 C86 H86 119.7 . . ? 
C86 C87 C88 119.4(2) . . ? 
C86 C87 H87 120.3 . . ? 
C88 C87 H87 120.3 . . ? 
C89 C88 C87 119.8(2) . . ? 
C89 C88 H88 120.1 . . ? 
C87 C88 H88 120.1 . . ? 
C88 C89 C84 122.17(19) . . ? 
C88 C89 H89 118.9 . . ? 
C84 C89 H89 118.9 . . ? 
C84 C90 H90A 109.5 . . ? 
C84 C90 H90B 109.5 . . ? 
H90A C90 H90B 109.5 . . ? 
C84 C90 H90C 109.5 . . ? 
H90A C90 H90C 109.5 . . ? 
H90B C90 H90C 109.5 . . ? 
 
loop_ 
 _geom_torsion_atom_site_label_1 
 _geom_torsion_atom_site_label_2 
 _geom_torsion_atom_site_label_3 
 _geom_torsion_atom_site_label_4 
 _geom_torsion 
 _geom_torsion_site_symmetry_1 
 _geom_torsion_site_symmetry_2 
 _geom_torsion_site_symmetry_3 
 _geom_torsion_site_symmetry_4 
 _geom_torsion_publ_flag 
C6 C1 C2 C3 -1.0(2) . . . . ? 
C14 C1 C2 C3 179.49(12) . . . . ? 
C28 O4 C3 C2 5.3(2) . . . . ? 
C28 O4 C3 C4 -174.79(12) . . . . ? 
C1 C2 C3 O4 -179.47(12) . . . . ? 
C1 C2 C3 C4 0.6(2) . . . . ? 
C29 O5 C4 C5 -1.3(2) . . . . ? 
C29 O5 C4 C3 179.19(13) . . . . ? 
O4 C3 C4 O5 -0.66(18) . . . . ? 
C2 C3 C4 O5 179.23(12) . . . . ? 
O4 C3 C4 C5 179.80(12) . . . . ? 
C2 C3 C4 C5 -0.3(2) . . . . ? 
O5 C4 C5 C6 -179.18(13) . . . . ? 
C3 C4 C5 C6 0.3(2) . . . . ? 
C2 C1 C6 C5 1.0(2) . . . . ? 
C14 C1 C6 C5 -179.53(12) . . . . ? 
C2 C1 C6 C7 -177.79(12) . . . . ? 
C14 C1 C6 C7 1.7(2) . . . . ? 
C4 C5 C6 C1 -0.6(2) . . . . ? 
C4 C5 C6 C7 178.16(13) . . . . ? 
C1 C6 C7 O1 175.42(13) . . . . ? 
C5 C6 C7 O1 -3.4(2) . . . . ? 
C1 C6 C7 C8 -6.02(19) . . . . ? 
C5 C6 C7 C8 175.20(12) . . . . ? 
O1 C7 C8 C13 179.63(13) . . . . ? 
C6 C7 C8 C13 1.07(19) . . . . ? 
O1 C7 C8 C9 1.1(2) . . . . ? 
C6 C7 C8 C9 -177.51(12) . . . . ? 
C13 C8 C9 C10 -1.3(2) . . . . ? 
C7 C8 C9 C10 177.28(12) . . . . ? 
C30 O2 C10 C9 4.1(2) . . . . ? 
C30 O2 C10 C11 -176.01(12) . . . . ? 
C8 C9 C10 O2 179.55(12) . . . . ? 
C8 C9 C10 C11 -0.3(2) . . . . ? 
C31 O3 C11 C12 3.5(2) . . . . ? 
C31 O3 C11 C10 -175.68(13) . . . . ? 
O2 C10 C11 O3 0.69(17) . . . . ? 
C9 C10 C11 O3 -179.45(12) . . . . ? 
O2 C10 C11 C12 -178.58(12) . . . . ? 
C9 C10 C11 C12 1.3(2) . . . . ? 
O3 C11 C12 C13 -179.83(12) . . . . ? 
C10 C11 C12 C13 -0.7(2) . . . . ? 
C9 C8 C13 C12 2.0(2) . . . . ? 
C7 C8 C13 C12 -176.58(12) . . . . ? 
C9 C8 C13 C14 -173.30(12) . . . . ? 
C7 C8 C13 C14 8.2(2) . . . . ? 
C11 C12 C13 C8 -0.97(19) . . . . ? 
C11 C12 C13 C14 174.49(12) . . . . ? 
C8 C13 C14 C27 -131.29(13) . . . . ? 
C12 C13 C14 C27 53.40(15) . . . . ? 
C8 C13 C14 C1 -11.62(17) . . . . ? 
C12 C13 C14 C1 173.07(11) . . . . ? 
C8 C13 C14 C15 106.07(14) . . . . ? 
C12 C13 C14 C15 -69.24(14) . . . . ? 
C6 C1 C14 C27 128.27(13) . . . . ? 
C2 C1 C14 C27 -52.22(15) . . . . ? 
C6 C1 C14 C13 6.74(18) . . . . ? 
C2 C1 C14 C13 -173.75(11) . . . . ? 
C6 C1 C14 C15 -110.22(14) . . . . ? 
C2 C1 C14 C15 69.29(14) . . . . ? 
C27 C14 C15 C20 -4.69(17) . . . . ? 
C13 C14 C15 C20 116.48(13) . . . . ? 
C1 C14 C15 C20 -122.67(13) . . . . ? 
C27 C14 C15 C16 176.69(11) . . . . ? 
C13 C14 C15 C16 -62.14(14) . . . . ? 
C1 C14 C15 C16 58.72(15) . . . . ? 
C20 C15 C16 C17 -0.99(19) . . . . ? 
C14 C15 C16 C17 177.69(12) . . . . ? 
C32 O6 C17 C16 -7.3(2) . . . . ? 
C32 O6 C17 C18 173.99(13) . . . . ? 
C15 C16 C17 O6 -179.97(12) . . . . ? 
C15 C16 C17 C18 -1.4(2) . . . . ? 
C33 O7 C18 C19 -2.6(2) . . . . ? 
C33 O7 C18 C17 177.41(12) . . . . ? 
O6 C17 C18 O7 1.03(17) . . . . ? 
C16 C17 C18 O7 -177.71(12) . . . . ? 
O6 C17 C18 C19 -178.99(12) . . . . ? 
C16 C17 C18 C19 2.3(2) . . . . ? 
O7 C18 C19 C20 179.17(13) . . . . ? 
C17 C18 C19 C20 -0.8(2) . . . . ? 
C16 C15 C20 C19 2.45(19) . . . . ? 
C14 C15 C20 C19 -176.16(12) . . . . ? 
C16 C15 C20 C21 -174.92(12) . . . . ? 
C14 C15 C20 C21 6.47(19) . . . . ? 
C18 C19 C20 C15 -1.6(2) . . . . ? 
C18 C19 C20 C21 175.90(12) . . . . ? 
C15 C20 C21 O10 176.69(12) . . . . ? 
C19 C20 C21 O10 -0.73(19) . . . . ? 
C15 C20 C21 C22 -1.65(19) . . . . ? 
C19 C20 C21 C22 -179.07(12) . . . . ? 
O10 C21 C22 C27 176.73(13) . . . . ? 
C20 C21 C22 C27 -4.92(18) . . . . ? 
O10 C21 C22 C23 -2.41(19) . . . . ? 
C20 C21 C22 C23 175.94(12) . . . . ? 
C27 C22 C23 C24 0.1(2) . . . . ? 
C21 C22 C23 C24 179.24(12) . . . . ? 
C34 O8 C24 C23 -10.5(2) . . . . ? 
C34 O8 C24 C25 169.55(12) . . . . ? 
C22 C23 C24 O8 178.37(12) . . . . ? 
C22 C23 C24 C25 -1.7(2) . . . . ? 
C35 O9 C25 C26 10.38(19) . . . . ? 
C35 O9 C25 C24 -168.81(12) . . . . ? 
O8 C24 C25 O9 0.51(17) . . . . ? 
C23 C24 C25 O9 -179.42(12) . . . . ? 
O8 C24 C25 C26 -178.72(12) . . . . ? 
C23 C24 C25 C26 1.3(2) . . . . ? 
O9 C25 C26 C27 -178.50(12) . . . . ? 
C24 C25 C26 C27 0.7(2) . . . . ? 
C23 C22 C27 C26 1.91(19) . . . . ? 
C21 C22 C27 C26 -177.22(12) . . . . ? 
C23 C22 C27 C14 -174.25(12) . . . . ? 
C21 C22 C27 C14 6.62(19) . . . . ? 
C25 C26 C27 C22 -2.27(19) . . . . ? 
C25 C26 C27 C14 174.07(12) . . . . ? 
C13 C14 C27 C22 -120.74(13) . . . . ? 
C1 C14 C27 C22 116.40(13) . . . . ? 
C15 C14 C27 C22 -1.87(17) . . . . ? 
C13 C14 C27 C26 63.06(15) . . . . ? 
C1 C14 C27 C26 -59.80(15) . . . . ? 
C15 C14 C27 C26 -178.06(11) . . . . ? 
C41 C36 C37 C38 1.29(19) . . . . ? 
C49 C36 C37 C38 -174.05(12) . . . . ? 
C63 O12 C38 C37 -2.6(2) . . . . ? 
C63 O12 C38 C39 176.43(13) . . . . ? 
C36 C37 C38 O12 -179.98(12) . . . . ? 
C36 C37 C38 C39 1.0(2) . . . . ? 
C64 O13 C39 C40 -2.60(19) . . . . ? 
C64 O13 C39 C38 177.99(12) . . . . ? 
O12 C38 C39 O13 -1.65(17) . . . . ? 
C37 C38 C39 O13 177.46(12) . . . . ? 
O12 C38 C39 C40 178.90(12) . . . . ? 
C37 C38 C39 C40 -2.0(2) . . . . ? 
O13 C39 C40 C41 -178.73(12) . . . . ? 
C38 C39 C40 C41 0.7(2) . . . . ? 
C37 C36 C41 C40 -2.62(19) . . . . ? 
C49 C36 C41 C40 172.50(12) . . . . ? 
C37 C36 C41 C42 175.78(12) . . . . ? 
C49 C36 C41 C42 -9.11(19) . . . . ? 
C39 C40 C41 C36 1.7(2) . . . . ? 
C39 C40 C41 C42 -176.81(12) . . . . ? 
C36 C41 C42 O11 -178.37(13) . . . . ? 
C40 C41 C42 O11 0.1(2) . . . . ? 
C36 C41 C42 C43 -0.20(19) . . . . ? 
C40 C41 C42 C43 178.23(12) . . . . ? 
O11 C42 C43 C48 -176.87(13) . . . . ? 
C41 C42 C43 C48 4.95(19) . . . . ? 
O11 C42 C43 C44 2.1(2) . . . . ? 
C41 C42 C43 C44 -176.12(12) . . . . ? 
C48 C43 C44 C45 0.4(2) . . . . ? 
C42 C43 C44 C45 -178.57(13) . . . . ? 
C65 O14 C45 C44 -0.4(2) . . . . ? 
C65 O14 C45 C46 178.51(13) . . . . ? 
C43 C44 C45 O14 178.19(13) . . . . ? 
C43 C44 C45 C46 -0.6(2) . . . . ? 
C66 O15 C46 C47 -3.9(2) . . . . ? 
C66 O15 C46 C45 176.27(13) . . . . ? 
O14 C45 C46 O15 1.60(19) . . . . ? 
C44 C45 C46 O15 -179.45(13) . . . . ? 
O14 C45 C46 C47 -178.24(13) . . . . ? 
C44 C45 C46 C47 0.7(2) . . . . ? 
O15 C46 C47 C48 179.66(13) . . . . ? 
C45 C46 C47 C48 -0.5(2) . . . . ? 
C44 C43 C48 C47 -0.2(2) . . . . ? 
C42 C43 C48 C47 178.74(12) . . . . ? 
C44 C43 C48 C49 -179.28(12) . . . . ? 
C42 C43 C48 C49 -0.4(2) . . . . ? 
C46 C47 C48 C43 0.3(2) . . . . ? 
C46 C47 C48 C49 179.41(12) . . . . ? 
C41 C36 C49 C50 132.27(13) . . . . ? 
C37 C36 C49 C50 -52.55(15) . . . . ? 
C41 C36 C49 C48 12.71(17) . . . . ? 
C37 C36 C49 C48 -172.12(11) . . . . ? 
C41 C36 C49 C62 -104.59(14) . . . . ? 
C37 C36 C49 C62 70.59(14) . . . . ? 
C43 C48 C49 C50 -129.48(13) . . . . ? 
C47 C48 C49 C50 51.40(15) . . . . ? 
C43 C48 C49 C36 -7.98(18) . . . . ? 
C47 C48 C49 C36 172.89(11) . . . . ? 
C43 C48 C49 C62 108.93(14) . . . . ? 
C47 C48 C49 C62 -70.19(14) . . . . ? 
C36 C49 C50 C55 123.12(13) . . . . ? 
C48 C49 C50 C55 -113.98(14) . . . . ? 
C62 C49 C50 C55 3.85(18) . . . . ? 
C36 C49 C50 C51 -60.90(15) . . . . ? 
C48 C49 C50 C51 62.01(15) . . . . ? 
C62 C49 C50 C51 179.83(11) . . . . ? 
C55 C50 C51 C52 2.3(2) . . . . ? 
C49 C50 C51 C52 -173.83(12) . . . . ? 
C67 O16 C52 C51 -9.6(2) . . . . ? 
C67 O16 C52 C53 169.77(13) . . . . ? 
C50 C51 C52 O16 179.02(13) . . . . ? 
C50 C51 C52 C53 -0.4(2) . . . . ? 
C68 O17 C53 C54 8.5(2) . . . . ? 
C68 O17 C53 C52 -171.91(14) . . . . ? 
O16 C52 C53 O17 -0.75(19) . . . . ? 
C51 C52 C53 O17 178.68(13) . . . . ? 
O16 C52 C53 C54 178.91(13) . . . . ? 
C51 C52 C53 C54 -1.7(2) . . . . ? 
O17 C53 C54 C55 -178.65(13) . . . . ? 
C52 C53 C54 C55 1.7(2) . . . . ? 
C51 C50 C55 C54 -2.2(2) . . . . ? 
C49 C50 C55 C54 173.69(12) . . . . ? 
C51 C50 C55 C56 176.77(12) . . . . ? 
C49 C50 C55 C56 -7.3(2) . . . . ? 
C53 C54 C55 C50 0.2(2) . . . . ? 
C53 C54 C55 C56 -178.81(13) . . . . ? 
C50 C55 C56 O20 -176.60(13) . . . . ? 
C54 C55 C56 O20 2.40(19) . . . . ? 
C50 C55 C56 C57 4.47(19) . . . . ? 
C54 C55 C56 C57 -176.52(12) . . . . ? 
O20 C56 C57 C62 -177.19(12) . . . . ? 
C55 C56 C57 C62 1.73(18) . . . . ? 
O20 C56 C57 C58 0.56(19) . . . . ? 
C55 C56 C57 C58 179.49(12) . . . . ? 
C62 C57 C58 C59 1.4(2) . . . . ? 
C56 C57 C58 C59 -176.34(12) . . . . ? 
C69 O18 C59 C58 4.0(2) . . . . ? 
C69 O18 C59 C60 -175.65(12) . . . . ? 
C57 C58 C59 O18 -179.08(12) . . . . ? 
C57 C58 C59 C60 0.5(2) . . . . ? 
C70 O19 C60 C61 5.5(2) . . . . ? 
C70 O19 C60 C59 -175.44(13) . . . . ? 
O18 C59 C60 O19 -1.35(17) . . . . ? 
C58 C59 C60 O19 179.02(12) . . . . ? 
O18 C59 C60 C61 177.77(12) . . . . ? 
C58 C59 C60 C61 -1.9(2) . . . . ? 
O19 C60 C61 C62 -179.69(12) . . . . ? 
C59 C60 C61 C62 1.3(2) . . . . ? 
C58 C57 C62 C61 -2.01(19) . . . . ? 
C56 C57 C62 C61 175.71(12) . . . . ? 
C58 C57 C62 C49 177.21(12) . . . . ? 
C56 C57 C62 C49 -5.06(19) . . . . ? 
C60 C61 C62 C57 0.65(19) . . . . ? 
C60 C61 C62 C49 -178.62(12) . . . . ? 
C50 C49 C62 C57 2.36(17) . . . . ? 
C36 C49 C62 C57 -119.09(13) . . . . ? 
C48 C49 C62 C57 120.08(13) . . . . ? 
C50 C49 C62 C61 -178.40(11) . . . . ? 
C36 C49 C62 C61 60.15(14) . . . . ? 
C48 C49 C62 C61 -60.68(15) . . . . ? 
C76 C71 C72 C73 -2(2) . . . . ? 
C91 C71 C72 C73 177.2(10) . . . . ? 
C71 C72 C73 C74 2(2) . . . . ? 
C72 C73 C74 C75 -0.9(11) . . . . ? 
C73 C74 C75 C76 -0.1(7) . . . . ? 
C74 C75 C76 C71 0.1(7) . . . . ? 
C72 C71 C76 C75 0.7(11) . . . . ? 
C91 C71 C76 C75 -178.2(4) . . . . ? 
C98 C93 C94 C95 -4(4) . . . . ? 
C99 C93 C94 C95 -179(2) . . . . ? 
C93 C94 C95 C96 5(4) . . . . ? 
C94 C95 C96 C97 -3(2) . . . . ? 
C95 C96 C97 C98 0.6(14) . . . . ? 
C96 C97 C98 C93 0.1(17) . . . . ? 
C94 C93 C98 C97 2(2) . . . . ? 
C99 C93 C98 C97 176.8(10) . . . . ? 
C82 C77 C78 C79 0.9(3) . . . . ? 
C83 C77 C78 C79 -179.8(2) . . . . ? 
C77 C78 C79 C80 -0.8(4) . . . . ? 
C78 C79 C80 C81 0.1(6) . . . . ? 
C79 C80 C81 C82 0.3(7) . . . . ? 
C80 C81 C82 C77 -0.2(6) . . . . ? 
C78 C77 C82 C81 -0.4(4) . . . . ? 
C83 C77 C82 C81 -179.7(3) . . . . ? 
C82' C77' C78' C79' -4(4) . . . . ? 
C83' C77' C78' C79' -179(3) . . . . ? 
C77' C78' C79' C80' 5(6) . . . . ? 
C78' C79' C80' C81' -4(7) . . . . ? 
C79' C80' C81' C82' 1(6) . . . . ? 
C80' C81' C82' C77' 0(4) . . . . ? 
C78' C77' C82' C81' 1(3) . . . . ? 
C83' C77' C82' C81' 177(2) . . . . ? 
C89 C84 C85 C86 0.5(3) . . . . ? 
C90 C84 C85 C86 -178.57(19) . . . . ? 
C84 C85 C86 C87 0.5(3) . . . . ? 
C85 C86 C87 C88 -0.6(3) . . . . ? 
C86 C87 C88 C89 -0.3(3) . . . . ? 
C87 C88 C89 C84 1.3(3) . . . . ? 
C85 C84 C89 C88 -1.4(3) . . . . ? 
C90 C84 C89 C88 177.7(2) . . . . ? 
 
_diffrn_measured_fraction_theta_max    1.000 
_diffrn_reflns_theta_full              26.73 
_diffrn_measured_fraction_theta_full   1.000 
_refine_diff_density_max    0.313 
_refine_diff_density_min   -0.220 
_refine_diff_density_rms    0.044 
